23
Coordinates from ORCA-job geoopt E -574.804203395486
  C           2.55346050481512     -2.13435296107021     -0.52559801722677
  C           2.62715575423871     -0.83483083973319      0.23189059662153
  O           1.34114189488706     -0.15354788047452      0.04333173110823
  C           1.19451771402193      1.02996039805294      0.64177430295826
  O           2.04769791955334      1.56864797806247      1.32215109804701
  C          -0.15968994229673      1.65080887369885      0.37487369319733
  C          -1.06116716022724      0.77591464073126     -0.45703686096380
  O          -1.14138732007735      0.83300921526304     -1.67207274015305
  O          -1.75248235430234     -0.08124783478832      0.30142620801404
  C          -2.61649874605863     -1.03028286493217     -0.40607044057033
  C          -3.26398036442352     -1.90397148509273      0.63632293133412
  H           1.74901932634850     -2.76930567937594     -0.14202923365562
  H           2.39265754505172     -1.95997372758841     -1.59377527715627
  H           3.50070945957549     -2.66875375138109     -0.40368045653814
  H           3.41618002806508     -0.17819735450779     -0.14751285636071
  H           2.77365544869500     -0.98874989856549      1.30544155224460
  H          -0.61379472930748      1.87354533029544      1.34536011999365
  H           0.01276331408260      2.59467122572031     -0.15133229892273
  H          -3.35223764606942     -0.45864395029119     -0.98061804430608
  H          -1.99314716834623     -1.60605631591023     -1.09793377720796
  H          -3.91797568221320     -2.62601777248533      0.13766017994200
  H          -2.51345797377526     -2.45854957061757      1.20776658185873
  H          -3.87124807343713     -1.31078935081010      1.32673588884192
