12
Coordinates from ORCA-job geoopt E -194.290018155991
  C           1.87552592600923     -0.19908380707366     -0.25608329958260
  C           0.56315450681668      0.01370474798473      0.46174469158198
  O          -0.50746545210541     -0.34498021750636     -0.42242752112516
  C          -1.77899113623939     -0.16005833087744      0.19631121398421
  H           1.99579291572346     -1.24699525202047     -0.55031623540074
  H           1.93758308704358      0.42641510486097     -1.15277103019396
  H           2.70612180492435      0.06786744082042      0.40511050942526
  H           0.44855693769187      1.06684807685222      0.76596383588224
  H           0.50850041082883     -0.60555835124533      1.37188137640014
  H          -1.87862957783446     -0.78742877003366      1.09474215501798
  H          -2.54288135885603     -0.45060090203430     -0.52975797797147
  H          -1.93350635400272      0.89162427107289      0.48043976358212
