20
Coordinates from ORCA-job geoopt E -236.993619255051
  C          -2.17616649175758     -0.00692027130081      0.00046611554080
  C          -0.88006880983208     -0.81480923501210      0.00033918733987
  C           0.43085144588277     -0.00021931423347     -0.00011330002884
  C           0.52419341715340      0.88007469562647      1.25189132509430
  C           0.52299313825044      0.88064134537725     -1.25180066926935
  C           1.60327341377682     -0.98943495640446     -0.00087067934601
  H          -3.04186181159576     -0.67845933302320      0.00129205466564
  H          -2.25875253454458      0.63272567610065      0.88572557626605
  H          -2.25957528717128      0.63160645950648     -0.88552203724446
  H          -0.86973711155728     -1.47402250855257     -0.87960538705611
  H          -0.86930338155050     -1.47370588991388      0.88051414089451
  H           0.42244052117685      0.27852865484645      2.16378524958532
  H          -0.25455250823921      1.65044838795899      1.26514155489057
  H           1.49425374503915      1.39023829889267      1.29065048466486
  H           1.49321182493981      1.39041293800738     -1.29157198830893
  H           0.41990789788349      0.27952257575621     -2.16384085248205
  H          -0.25556363647298      1.65122051909451     -1.26380515432886
  H           1.57334902563456     -1.63453159077026      0.88590115842194
  H           2.56330050854861     -0.45936997620195     -0.00098031442015
  H           1.57277604473537     -1.63387167535436     -0.88810181977911
