15
Coordinates from ORCA-job geoopt E -250.623170407382
  C          -2.65979935936282      0.66427177379828     -0.09743051531104
  C          -1.27187946142982      0.16590086302397     -0.48801036126975
  C          -0.56761962403188     -0.53226081088888      0.67118668761250
  C           0.81788317272341     -1.08510023658894      0.29291644774550
  C           1.73862512911664     -0.03506964382029     -0.09652518719020
  N           2.46143619981024      0.81904967959323     -0.39870993992207
  H          -3.15342556175987      1.16389722061829     -0.93747539041868
  H          -3.30007632434487     -0.16612145328017      0.22213803691203
  H          -2.60156874470789      1.37967334121751      0.73103922949479
  H          -1.34904739756947     -0.53019938016962     -1.33405687028768
  H          -0.66025295093711      1.01149121435911     -0.83180982731640
  H          -1.16861856449862     -1.38157266717169      1.01640497853375
  H          -0.46160220098468      0.15608461270116      1.51839053609323
  H           1.26669323297729     -1.62633035964644      1.13362447906622
  H           0.73782405689945     -1.78799405084552     -0.54552432244218
