12
Coordinates from ORCA-job geoopt E -517.262499471485
  C          -2.50686779241020      0.07908344116593     -0.00069509132084
  C          -1.09845750704415     -0.51226306926916      0.04105506942201
  C          -0.04334746682683      0.58086321455032     -0.04787771605847
  S           1.69246404713434     -0.05336470925069      0.01914853494946
  H          -3.26381447492223     -0.70973177647034      0.06010697334841
  H          -2.66989116868426      0.76731834888469      0.83649583784387
  H          -2.67438960980624      0.63435661956365     -0.93055004030912
  H          -0.96472992140482     -1.21416730102389     -0.79196182025623
  H          -0.95550630101066     -1.08263433101378      0.96655857407780
  H          -0.16413766057914      1.17169791641904     -0.96184027306212
  H          -0.12199683205454      1.26711633614587      0.80306261623082
  H           1.62096734710873     -0.80411041910165     -1.09621453516559
