17
Coordinates from ORCA-job geoopt E -494.836325614715
  C           5.27887566004300     -0.92322044465942      0.34137893623968
  C           3.90899012096144     -0.95244804822048     -0.33043178974848
  C           2.82033705617829     -0.32521657611411      0.54054191999038
  C           1.44392865036065     -0.35728909033385     -0.13580684054841
  C           0.40920506357238      0.27256246067076      0.76673381128792
  I          -1.59422750885857      0.25468555603001     -0.14558844390856
  H           5.26329936725084     -1.47343360430287      1.28950777866130
  H           6.04627687385191     -1.37617380709564     -0.29567414728209
  H           5.58833908272940      0.10592498319665      0.55820455407275
  H           3.63203259609066     -1.98975350912070     -0.56227402788547
  H           3.95510344885965     -0.41941170461445     -1.28970552294312
  H           3.09113403035523      0.71480876068499      0.77032740046472
  H           2.76882655002510     -0.85833982002417      1.50017016876177
  H           1.49015148070796      0.18204331950288     -1.08952111952487
  H           1.16802719840160     -1.39510580119952     -0.35806481011295
  H           0.59763777726681      1.32869363095112      0.96145833463241
  H           0.27378872630363     -0.26803189555118      1.70387639884303
