23
Coordinates from ORCA-job geoopt E -735.876203308017
  C          -5.16607250121878      0.35702304473904      0.30483617786108
  C          -3.87573155218743      0.13785659468300     -0.48049564696468
  C          -2.62883137133500      0.22807654779593      0.39799239474467
  C          -1.33115799216049      0.01169782610989     -0.37784154809124
  C          -0.08818069460550      0.09717747050964      0.50692302976241
  C           1.20491199402917     -0.11941625033531     -0.28545457590250
  C           2.40233041129519     -0.03320545989767      0.63272367022502
  Cl          3.97613653827716     -0.29063519626295     -0.29652461050474
  H          -5.17581359253926      1.34703689753722      0.77604096652274
  H          -6.04769936795244      0.28610233825624     -0.34154320315183
  H          -5.27346704444932     -0.39030015861808      1.09996102278939
  H          -3.80407587026416      0.88091882163195     -1.28683563680862
  H          -3.90334747520633     -0.84660940617534     -0.96786022490929
  H          -2.69954332390500     -0.51673019347783      1.20428274261602
  H          -2.60096990780669      1.21287893935488      0.88710096156120
  H          -1.25735202005049      0.75934178215286     -1.18060272664108
  H          -1.35960767623598     -0.97171225017709     -0.86872725026923
  H          -0.15707238789426     -0.65351733442370      1.30659325735115
  H          -0.05604987264721      1.07982492703798      0.99795731232854
  H           1.18086204077687     -1.10248847870778     -0.77159363281409
  H           1.28716332964413      0.63841039580722     -1.07427319472952
  H           2.49508846580491      0.95014807057621      1.09957376766810
  H           2.38770657683092     -0.80678423371631      1.40403445145648
