14
Coordinates from ORCA-job geoopt E -436.685705648859
  C          -2.56569069080613     -0.00000102043406      0.00004033840947
  C          -1.87316678090677     -1.21009019574576      0.00006065595598
  C          -0.48509851661772     -1.22084563359556      0.00002449211343
  C           0.18366345759722      0.00000182102168     -0.00001781461523
  C          -0.48510027453160      1.22084836643926     -0.00004194616916
  C          -1.87316890576796      1.21008963981308     -0.00000931434622
  N           1.64733533144426     -0.00000154781125     -0.00000755592982
  O           2.23227947461041      1.08241246415589      0.00005041925267
  O           2.23227601541646     -1.08241538118440     -0.00001782163523
  H          -3.65157850872573     -0.00000220409374      0.00006701722491
  H          -2.41583065058093     -2.14999193287583      0.00011177582418
  H           0.06835065202642     -2.15222614865202      0.00005442212528
  H           0.06834686479946      2.15223025560216     -0.00006682145019
  H          -2.41583507145737      2.14999007056055     -0.00001591746008
