22
Coordinates from ORCA-job geoopt E -350.318039836435
  C          -3.80009052150970      0.59268421985859      0.01661400855366
  C          -2.55764781955538     -0.28978388720067     -0.06411811467474
  C          -1.27829242594846      0.52571832391932      0.06860557264342
  C          -0.00000015601925     -0.26858513193867     -0.00088788886397
  O           0.00001173667037     -1.49670696489181     -0.00201937196415
  C           1.27828332002123      0.52584547642889     -0.06898284864090
  C           2.55761598177374     -0.28977951293388      0.06327208973589
  C           3.80005286479390      0.59283059838166     -0.01574271099173
  H          -3.84496986853741      1.12247950741875      0.97526076110064
  H          -3.80217050815501      1.34501171425122     -0.78062199637476
  H          -4.71460063402504     -0.00170070203085     -0.08107596440449
  H          -2.54533454088040     -0.83108423342849     -1.01840438042740
  H          -2.58908351568775     -1.04992371210391      0.72550595157515
  H          -1.25909978721406      1.06318045123831      1.02955216703165
  H          -1.22727248847596      1.31400711372384     -0.69625317962915
  H           1.22701798548049      1.31329490209187      0.69671709844481
  H           1.25943302743535      1.06438917017965     -1.02933674260605
  H           2.54485923739943     -0.83232618672769      1.01684935031785
  H           2.58942980639084     -1.04894236856489     -0.72727691554802
  H           4.71454691884252     -0.00164353007899      0.08154841293676
  H           3.84533922481496      1.12392769730219     -0.97365077073689
  H           3.80173369888559      1.34408939330554      0.78250188422239
