22
Coordinates from ORCA-job geoopt E -350.318697043932
  C           1.93913588413963      0.64103626763882      1.34485826067375
  C           1.26415076711499     -0.27346823415754      0.30390106561261
  C           2.24133767021725     -0.68056194513106     -0.79278475315578
  C           0.06373518393697      0.47956289313245     -0.23071166090639
  O           0.13766069427857      1.17008138715510     -1.24332298313583
  C          -1.23196132876175      0.34288217171883      0.54175112735682
  C          -1.94679748464619     -0.91045448201552      0.00048626479286
  C          -2.11807654033094      1.57802683526900      0.42936533903940
  H           2.32396853147735      1.54621384981814      0.86205318224359
  H           2.77939324869009      0.11244785416934      1.80621829885110
  H           1.24603435346235      0.93843341738028      2.13851483537461
  H           0.89279521661528     -1.16416526689020      0.82810167501336
  H           1.75335248349243     -1.30353609971127     -1.54984754578065
  H           2.65991838954583      0.19938294269262     -1.29179679153863
  H           3.06971780631438     -1.25145714817032     -0.36110793743986
  H          -0.97549805375321      0.15718492405051      1.59333062907306
  H          -1.31927401284098     -1.80432731618682      0.07721663413950
  H          -2.86223349442591     -1.08605383359522      0.57443508196109
  H          -2.22048720610619     -0.76731090695838     -1.05075862255615
  H          -3.02352870333217      1.44352163625735      1.02982088247757
  H          -1.59953000307992      2.47398316847147      0.78682234418746
  H          -2.42191702410785      1.74991415976243     -0.60827903438351
