28
Coordinates from ORCA-job geoopt E -653.180933914953
  C           4.74100328731102      2.26782903240136     -0.33315318488694
  C           3.70320291146246      1.17831803182195     -0.58593441056162
  C           3.66423084890181      0.14848609034988      0.54243773004370
  C           2.69375943811262     -0.98482995733412      0.30236117224812
  O           1.35123589231410     -0.41283111474773      0.26260080822087
  C           0.33839267259963     -1.26541094163878      0.03847938647846
  O           0.50472608120595     -2.47081029124074     -0.11740852548726
  C          -0.97551120827268     -0.59851048878714      0.00157425813268
  C          -2.12178430319187     -1.38277665507432     -0.18137645999245
  C          -3.37771736822209     -0.80276687678826     -0.22522085444100
  C          -3.49948998690670      0.58349644024660     -0.08682754078586
  C          -2.36575169804922      1.38078711861491      0.09484858633523
  C          -1.11515306061690      0.79071364096032      0.13936653026637
  O          -4.70812938560942      1.21567745159400     -0.12229311082212
  H           4.52562231546130      2.80669331313883      0.59698592478587
  H           5.74666192162847      1.84019065897405     -0.24519784879751
  H           4.75765836589295      3.00000185913861     -1.14738345461206
  H           2.71227194021373      1.63547390080065     -0.70148697055786
  H           3.92429997954936      0.66456151903587     -1.53147656845894
  H           4.65763820031809     -0.30448132292261      0.66239506340021
  H           3.42402329893287      0.63849681438550      1.49569256349203
  H           2.88478324060398     -1.48552625896571     -0.65401610869768
  H           2.72933877207208     -1.72834770407014      1.10576832686938
  H          -2.02242790689423     -2.45837771005443     -0.28862176318334
  H          -4.26638088864934     -1.41283194614486     -0.36559964099836
  H          -2.47971974518980      2.45547389795119      0.19906231048327
  H          -0.24002325236792      1.41577833072902      0.27966125414425
  H          -5.41363089011025      0.56405621142608     -0.24684208671743
