11
Coordinates from ORCA-job geoopt E -1038.260326740023
  C          -0.00003569984031      1.28939570273844      0.00007969264213
  C          -0.93139144347706      0.48984309385192     -0.88117498148910
  Cl         -2.03924649430250     -0.60020035505050      0.10745745973733
  C           0.93129520804613      0.48973586300640      0.88126129226073
  Cl          2.03920779690353     -0.60014827889397     -0.10746366207311
  H           0.58021536255036      1.94295976017029     -0.66468686601102
  H          -0.58026512640157      1.94291890882503      0.66490431115178
  H          -1.59106016600991      1.14524596687245     -1.45153109573835
  H          -0.39383388564634     -0.17380182832055     -1.56103278427736
  H           0.39371284949954     -0.17400379820463      1.56100831643083
  H           1.59090792057812      1.14507195740511      1.45176128926614
