27
Coordinates from ORCA-job geoopt E -465.780069670305
  C          -3.43169781645072      0.58077535137816      0.07118627428736
  C          -1.93473000003685      0.47683879580260      0.07824494772437
  C          -1.13550016465874      1.50314926905650     -0.23838728519755
  C           0.36270612119382      1.44254308584389     -0.27455205674835
  C           0.88615963048973     -0.00182522455116     -0.28875813035220
  H           0.64616636249312     -0.42816777741585     -1.27417479598932
  C           0.13018240720744     -0.79985472518585      0.78012691091005
  C          -1.36130521847417     -0.86543980004649      0.46762789558464
  H          -1.89576691214788     -1.23573778418813      1.35246347276703
  O          -1.65582236370774     -1.85717206840427     -0.55500377673374
  C           2.38849197318291     -0.06134671229429     -0.12487583512034
  C           3.17788875001701     -0.35182254843323     -1.16398624950439
  C           2.95310831939630      0.22059278558880      1.23866839515977
  H          -3.76287193476120      1.57832031387901     -0.23212492150958
  H          -3.84175625150209      0.36553514598145      1.06658175001535
  H          -3.87483461289521     -0.15118908880365     -0.61540504125936
  H          -1.58945924316321      2.46237688033777     -0.49090076844123
  H           0.73012827673539      1.97989494247103     -1.15869226990008
  H           0.76698922262273      1.98396555275115      0.59494717390348
  H           0.52415723063869     -1.81960508806470      0.86731069940535
  H           0.25485107743151     -0.31339985254216      1.75715773353535
  H          -1.33860685097290     -1.50076236752061     -1.39617764049220
  H           4.26071607169112     -0.37886714019058     -1.06337614404351
  H           2.76076923001209     -0.56924293997535     -2.14515894672529
  H           2.58236533552385      1.17087373653588      1.64094224588717
  H           2.65532737615248     -0.55746174880567      1.95239182881360
  H           4.04557432368250      0.25830564899577      1.21239216382363
