19
Coordinates from ORCA-job geoopt E -311.017823838947
  C           3.43595637850844      0.28732290257566      0.06141336817207
  C           2.18713345215680     -0.58157199339084     -0.05750942290247
  C           0.89888954306813      0.23418995459598      0.03923811704753
  C          -0.34365782922111     -0.63637885069123     -0.07793026909436
  C          -1.65404350314948      0.09776671651765      0.00264302785790
  O          -1.71376130507485      1.32447799138538      0.02852437436855
  C          -2.89371258950983     -0.74528241139119      0.07051056119248
  H           3.45876243154232      0.81281911464010      1.02335551527908
  H           4.34971908989846     -0.31191312556210     -0.01407291083858
  H           3.46503096198593      1.04355395589460     -0.73187307780538
  H           2.19230255260215     -1.34648036878647      0.73107551982817
  H           2.20192841737037     -1.12163528414658     -1.01416774991555
  H           0.88870696153242      0.99627627622794     -0.75073822014701
  H           0.87768653112268      0.77515584386178      0.99481461536415
  H          -0.35294143641895     -1.18151033777697     -1.03487313504924
  H          -0.35836217317630     -1.42335593469069      0.69080623251302
  H          -2.99677987694386     -1.11296821068727      1.10001061259047
  H          -3.77959557683796     -0.15946846674955     -0.18336417306906
  H          -2.81164794355535     -1.62467574662620     -0.57552924929177
