35
Coordinates from ORCA-job geoopt E -799.335041073545
  C          -0.51895261792230     -2.47147894648166     -0.12317966962344
  C           0.38929057424909     -1.28018646604931     -0.16380964039576
  C           1.77377786232823     -1.37666404913812      0.06041858397946
  N           2.58681386815923     -0.31540326068003      0.02010468106894
  C           2.03130705967309      0.88330695892343     -0.25614691621386
  N           0.70915535838311      1.09312089665368     -0.44118841872517
  C          -0.04982058800273      0.01602609318060     -0.38975379707037
  O          -1.39777308085111      0.25315648434898     -0.66409186320653
  C          -2.27189729182844      0.09602623848784      0.39654217166722
  O          -1.87332710147404     -0.02593494733371      1.55159746691087
  N          -3.55644376753288      0.15935144626559     -0.00059813723262
  C          -4.58368432672327     -0.17152869628783      0.98998762072394
  C          -3.93881034996776     -0.00637925416195     -1.40760859661781
  N           2.86675120439540      1.96180501738774     -0.38406046308912
  C           4.22265712178206      1.85980059295353      0.16036586529285
  C           2.28449690762250      3.30406942730522     -0.32209770551860
  C           2.39416868124147     -2.70355668564195      0.35980395015598
  H          -0.68566791252497     -2.81303936664466      0.90603791794322
  H          -1.49430673563876     -2.24844526969912     -0.56332887977251
  H          -0.08694396103301     -3.31049152303115     -0.67801522240682
  H          -4.72441404583203     -1.25746782899335      1.07035108492950
  H          -5.52616980329771      0.28573916987609      0.68040228928087
  H          -4.30469896383321      0.22456915683918      1.96712162977255
  H          -3.90029028312776     -1.06037002985022     -1.71152694317216
  H          -3.29052683032817      0.57986318410135     -2.05872229106245
  H          -4.96254558564007      0.35545672683172     -1.52622520463783
  H           4.22141162394723      1.82479654953963      1.25987960278534
  H           4.78779406241006      2.73794298081946     -0.15978705941661
  H           4.72682725792122      0.96928705776209     -0.21526888570549
  H           1.91124360370862      3.54329554498495      0.68475621725594
  H           1.46241387479356      3.40516577980531     -1.03120624161096
  H           3.05895092538937      4.02690887380130     -0.58754475302405
  H           2.29799017204675     -3.37340532650701     -0.50343314898796
  H           3.45231217124848     -2.59082330927368      0.60059760621422
  H           1.88189166035872     -3.19277730019392      1.19578076300924
