18
Coordinates from ORCA-job geoopt E -402.046963960763
  C          -3.20081792004229      0.57686159819288      0.00195329145720
  O          -2.30639586036819     -0.54125264438678     -0.00017400785285
  C          -0.95363571557080     -0.25781696342911     -0.00622228828300
  C          -0.41450437625523      1.02789374882048     -0.00825285789176
  C           0.97046678213233      1.19855128800981     -0.01225834541812
  C           1.83798239248882      0.10241609610331     -0.01611746026429
  C           1.27774337182856     -1.18455502552883     -0.01146530262078
  C          -0.09766322541082     -1.36198136554037     -0.00644595189121
  N           3.22632685064854      0.27795987341773     -0.09017330610698
  H          -3.06867159629073      1.19359272624796     -0.89596367440581
  H          -3.06207146781639      1.19558211245667      0.89749021140743
  H          -4.20730858814221      0.15455617235280      0.00619488498247
  H          -1.04944670094670      1.90686357966746     -0.00299487530338
  H           1.37997087114565      2.20618059970330     -0.01223916345444
  H           1.93081372748574     -2.05429477510167     -0.01066910512883
  H          -0.52129032134080     -2.36263930835813      0.00082689539188
  H           3.53934744228194      1.15746496679710      0.29980644034693
  H           3.74771631367259     -0.49313599442460      0.30632401463553
