29
Coordinates from ORCA-job geoopt E -466.972473202371
  C          -2.07645729413825      2.47287430411408     -0.04459810976810
  C          -1.85914147436043      0.99183508694222      0.11507135956164
  C          -1.20475151900717      0.49708687276206      1.17853840365297
  C          -0.94186145211846     -0.94279868491952      1.50349560715233
  C           0.53041134309498     -1.36806159075022      1.25737436929516
  C           0.87053119900987     -1.43122686930897     -0.20876906640178
  C           1.54464715067027     -0.48062522317119     -0.87598493205033
  C           2.08224920499265      0.79285979979109     -0.30759437624403
  O           1.23535229153834      1.92455367633761     -0.64582662791222
  C           0.36554500275818     -2.65321131272907     -0.92256525430594
  C          -2.42506076961909      0.16081043203734     -1.00022240582018
  H          -1.67712078444735      2.82891283575173     -1.00388595935734
  H          -3.15048029527458      2.70078267114815     -0.05612052626882
  H          -1.61148897163616      3.04613982913117      0.76325604536664
  H          -0.81493017141898      1.21431773152969      1.90477651213127
  H          -1.15173538628062     -1.10159569213353      2.56920891261439
  H          -1.61122639510569     -1.60817113945108      0.94967689468796
  H           1.18726403827129     -0.67944742964997      1.79740973334475
  H           0.67269574428558     -2.36489184286740      1.69489779406934
  H           1.69508859040973     -0.61446111001981     -1.94846383951060
  H           3.05828330563498      1.02449766937519     -0.74678467228893
  H           2.20759760802135      0.73910682312568      0.78070225009605
  H           0.35373641468225      1.69352420322737     -0.30886866530185
  H          -0.71268755539931     -2.78541454121440     -0.76799044105222
  H           0.84766690281823     -3.55464364045224     -0.52198181192186
  H           0.55759797902501     -2.60539920007607     -1.99823565389309
  H          -3.49880412021926      0.35776997090429     -1.11713462819299
  H          -1.95354472050817      0.44383649240927     -1.95070105402863
  H          -2.28322253597919     -0.91229075494347     -0.85900558085357
