20
Coordinates from ORCA-job geoopt E -386.244893818350
  C          -3.94886637494873      0.21255249250007      0.30377471892835
  C          -2.70629519785543     -0.05156481882926     -0.54146022041607
  C          -1.41435082749337      0.22426756637932      0.22547557990521
  C          -0.18025476714373     -0.04966225847053     -0.62405245328727
  C           1.11450217133346      0.21387000866529      0.08878006649853
  O           1.22712431440779      0.68961438790792      1.20654492044753
  O           2.17485246326318     -0.13757647354841     -0.66612134794892
  C           3.47981992337764      0.08923341437678     -0.07508203464435
  H          -3.98133014253269      1.25570752482697      0.63941016358930
  H          -4.86602054337192      0.01424030922791     -0.26105663709177
  H          -3.96018757729919     -0.42510889461728      1.19545105458501
  H          -2.70783218685689     -1.09460571549473     -0.88609129221353
  H          -2.73197165300108      0.57454295912614     -1.44374277649754
  H          -1.38262427804097     -0.39925706354039      1.12851728609377
  H          -1.40402238923686      1.26869127777491      0.56247238629095
  H          -0.18323994037827      0.57107183080115     -1.53093780181444
  H          -0.16389540227125     -1.08946657256591     -0.97558009912702
  H           3.62120444763061      1.15237484070378      0.13635199035896
  H           4.19781424496066     -0.24732694415282     -0.82277253419422
  H           3.58615089685707     -0.49390017207091      0.84340184843753
