15
Coordinates from ORCA-job geoopt E -233.594759046100
  C           1.62223923725124     -0.91170884007826     -0.02060016238496
  C           0.45100464877490     -0.01846711054171      0.34132280069355
  C           0.68240576420771      1.42351356936092     -0.08804074588188
  O          -0.70887447161754     -0.59474583827778     -0.30015144937051
  C          -1.94033253522051      0.00567124646179      0.09972283109693
  H           1.79879636475834     -0.89331234851461     -1.10227009748666
  H           2.53008035035173     -0.56279022487889      0.48078517497331
  H           1.43510508499975     -1.94579721065434      0.28602953650528
  H           0.28413157032689     -0.05119567877058      1.43167580573046
  H           1.59989727872341      1.80204348092313      0.37455871571979
  H          -0.13736508510988      2.08037291769412      0.21765138128511
  H           0.79565724606901      1.48405502366121     -1.17696878128236
  H          -2.01723268878788      0.05954140489643      1.19586134473066
  H          -2.74465946579405     -0.62956718042975     -0.28174088039409
  H          -2.06477089183313      1.01460872234833     -0.31591698853462
