21
Coordinates from ORCA-job geoopt E -366.394522988758
  C           3.46792244289638      0.65899328290236     -0.65994481731146
  C           2.55804565539055     -0.00451948171676      0.37012300754854
  C           1.14753971404397     -0.24874258764432     -0.16242535856181
  C           0.23052332751349     -0.91115467259939      0.86373236671237
  C          -1.18070155009577     -1.16094832568847      0.32166470084010
  C          -1.88782207635599      0.13396846876850     -0.01174023632619
  O          -1.98664573539898      1.05181370360600      0.82349780784845
  N          -2.40717425239667      0.23853825703763     -1.24662694263978
  H           4.47333204548143      0.82734789178296     -0.25899035580716
  H           3.06528050396561      1.63000923327750     -0.97167162418306
  H           3.56569076067214      0.03621519672217     -1.55701678198872
  H           2.49945895381139      0.62319184094959      1.26994978397941
  H           2.99473893716756     -0.96167076071568      0.68716529123880
  H           1.20035179914169     -0.87846957901741     -1.06261128212541
  H           0.71227592071623      0.71092798732106     -0.48000153068454
  H           0.16698343994270     -0.28610004071270      1.76360277740839
  H           0.65752573937938     -1.87299048896657      1.17399357997665
  H          -1.78990103715541     -1.66238199507258      1.08480871297263
  H          -1.14203806236706     -1.81845095097850     -0.55413408468133
  H          -2.90555689173399      1.07593827490524     -1.51316293087996
  H          -2.30796598561865     -0.50770950006062     -1.91725623773591
