11
Coordinates from ORCA-job geoopt E -2692.637989003902
  C          -2.49238639347630      0.23037873370024      0.39871721069829
  C          -1.76423800439426      0.04478748553623     -0.92621552133280
  C          -0.52085079772985     -0.80724386288068     -0.84127185425442
  Br          0.91211469759609      0.05179701182457      0.26676459180608
  H          -1.87709126943854      0.78460680573298      1.11476180381702
  H          -3.42326468127978      0.78723303789584      0.25338243748493
  H          -2.74299017741744     -0.73845712628747      0.84570241540133
  H          -1.52261458073229      1.01455063436634     -1.37660475789361
  H          -2.42225383527974     -0.47518735198618     -1.63865832146710
  H          -0.05187636414086     -0.96212245766292     -1.81285945914840
  H          -0.70376587450702     -1.76676306203894     -0.35481027791131
