24
Coordinates from ORCA-job geoopt E -389.393902904162
  C          -3.65971309110041      0.23555068480004      0.00130062260499
  C          -2.16518517883738      0.06948925969867      0.00010409386520
  C          -1.32208635169874      1.18835203301146      0.00385036190703
  C           0.06033085193357      1.04711630026512      0.00327495584462
  C           0.65682429397507     -0.22070011994526     -0.00111471297259
  C          -0.18305180316015     -1.33439640815537     -0.00489015888645
  C          -1.57136600505958     -1.19290573371063     -0.00433641107036
  C           2.16379378900887     -0.37811596559124     -0.00147808085142
  C           2.79036017439365      0.22353892843744      1.26232634492603
  C           2.79148326315041      0.23517949501606     -1.25907532303260
  H          -3.99469342741612      0.80386389345239     -0.87410532395374
  H          -4.16655153755546     -0.73339441328626     -0.00790738247841
  H          -3.99507765078915      0.78698676111424      0.88734728323984
  H          -1.75971537043842      2.18492903307343      0.00724727336515
  H           0.68443571960975      1.93794575296768      0.00623295914581
  H           0.25331564652513     -2.33135484251336     -0.00844575836556
  H          -2.20071019407225     -2.08030977619838     -0.00743321389877
  H           2.37652619709701     -1.45566563163280     -0.00634860096359
  H           2.62708597853517      1.30684186369315      1.30203398744342
  H           3.87184965894932      0.04651305003202      1.27539352822091
  H           2.36044593207954     -0.21829556891882      2.16784468230425
  H           2.36214962159665     -0.19803063584936     -2.16902930924047
  H           3.87291142004419      0.05786104091502     -1.27294065077655
  H           2.62871000822933      1.31887000382476     -1.28883883867674
