20
Coordinates from ORCA-job geoopt E -386.237735481857
  C          -1.86482144987240      1.36693486727870     -0.52866787936506
  C          -1.75503436937216      0.08671426146533      0.30014856713661
  C          -3.13819568939046     -0.52145652703406      0.53507389138267
  C          -0.84520038942602     -0.95701626222428     -0.36346188569067
  C           0.55755885155675     -0.49502837563976     -0.68087635293655
  O           1.19789885409619     -0.10214961309546      0.58100191014878
  C           2.43987817883882      0.36816471140213      0.49660561419930
  O           3.08050329420955      0.49687373124769     -0.52924462476276
  H          -2.57913156259570      2.06075264369354     -0.07153475915329
  H          -2.21657499793570      1.14217801085937     -1.54394182893632
  H          -0.90620758614304      1.89038988176260     -0.61151150814389
  H          -1.32579299002970      0.34468846120198      1.27867537517219
  H          -3.79350089758714      0.18115625938034      1.06164225838665
  H          -3.07492244462611     -1.43823391923944      1.13251921760362
  H          -3.61495474953424     -0.77440548572178     -0.42063317459069
  H          -1.29364105560198     -1.26883232064610     -1.31780110559597
  H          -0.79292774962255     -1.85317310768049      0.26866352849595
  H           1.15276490565758     -1.29948597046066     -1.12521539558589
  H           0.57508243423036      0.36741606647419     -1.35428955854375
  H           2.81426102954795      0.62860151387616      1.49770652337906
