17
Coordinates from ORCA-job geoopt E -475.986474590701
  C          -0.17597993038718     -2.35181874299846     -0.00042359767957
  C           0.48482433978603     -1.00590686772878     -0.00002488608185
  C           1.88448040044760     -0.96075453578360     -0.00007208179191
  C           2.59228080987501      0.23358934277222      0.00012723119417
  C           1.91468163508743      1.45109258635899      0.00029082264448
  C           0.53193263514482      1.45534947253265      0.00022356273557
  C          -0.16641992709014      0.24475683499286      0.00011732133869
  N          -1.62648293727199      0.34706896545447      0.00007010326395
  O          -2.13619442854151      1.47058375879124     -0.00206473119059
  O          -2.29924569202378     -0.68279031023750      0.00223827031198
  H          -0.81505570991109     -2.48781255255268     -0.87797889382325
  H           0.59216905200821     -3.12874429394276     -0.00155743680507
  H          -0.81362798887159     -2.48900321450251      0.87798022556112
  H           2.42685125343045     -1.90169151647276     -0.00029429267170
  H           3.67815145694413      0.21313691852262      0.00012956811250
  H           2.45915422862278      2.38975163954874      0.00045754795677
  H          -0.01695988304918      2.38869372474526      0.00035405582472
