23
Coordinates from ORCA-job geoopt E -516.666195251103
  C           5.09597170127695      0.43075695568708      0.23815145798651
  C           3.66673162011402      0.66923394088719     -0.24129100698119
  C           2.69812239933430     -0.41070302681892      0.23742981510777
  C           1.26508128599056     -0.18154797677800     -0.23760506647346
  C           0.31151872849059     -1.27163183944149      0.24899936741050
  C          -1.10280132017011     -1.12934262826413     -0.26814867739584
  O          -1.61966270576927      0.10932755591307      0.32772909523740
  N          -2.92109570435413      0.43176098695361     -0.05220936226439
  O          -3.32347391530474      1.45627290658266      0.45309509321534
  O          -3.50109400713407     -0.30731931071606     -0.81494923666577
  H           5.14524867776777      0.41447399987435      1.33337325686452
  H           5.47728967070291     -0.53055798905920     -0.12611428711039
  H           5.77475382440277      1.21465677705691     -0.11506384799111
  H           3.64771451342319      0.71019072593389     -1.33915983979500
  H           3.31767031293495      1.64943397114030      0.11181543239767
  H           2.71520881540658     -0.45171523503057      1.33635061828908
  H           3.04578889116314     -1.39274197778149     -0.11542566085450
  H           1.24237519975081     -0.14877854113337     -1.33618483799539
  H           0.91918098042246      0.79938350121841      0.11426978730812
  H           0.29683287742442     -1.31217566733312      1.34578752062986
  H           0.66046443129555     -2.25325283581011     -0.09801259393721
  H          -1.13307185989579     -1.02796398277937     -1.35811691063743
  H          -1.74362300817287     -1.95711063490165      0.05053883695492
