17
Coordinates from ORCA-job geoopt E -326.831214779886
  C           2.76793932801549     -0.00442670246439      0.72996828026825
  C           1.97209241741722      0.02883585220513     -0.58024120362993
  C           0.49040612941829     -0.01358363604085     -0.32752493631388
  C          -0.19437936165093     -1.21724887029606     -0.15720342819474
  C          -1.55511300462395     -1.19287289670147      0.12355572843896
  C          -2.19394187445380      0.03650236677393      0.22920753345520
  N          -1.56115260499951      1.20857368834436      0.06969434972619
  C          -0.24883631339418      1.16334076941846     -0.20164385047618
  H           2.54921269314991     -0.91714357264196      1.29512441417921
  H           2.51179616857147      0.85395496141123      1.36084419965358
  H           3.84435999153687      0.02526793042914      0.53135939042791
  H           2.25906765385385     -0.82531195486038     -1.20454186884293
  H           2.22109534067625      0.94025406868060     -1.13612864991699
  H           0.33532462484501     -2.16307056937668     -0.24797997268145
  H          -2.11707638856190     -2.11256744313859      0.25619182866661
  H          -3.25917594881869      0.08552087802091      0.44785604318368
  H           0.24917684551859      2.12453859513663     -0.33216279874349
