29
Coordinates from ORCA-job geoopt E -873.618669064441
  C          -2.99835949246170      0.73838181690396     -1.95640671092692
  C          -3.36640745278413     -0.20153280989433     -0.81345262892013
  C          -2.65213093074571      0.12150596438085      0.51351347061701
  H          -2.87800582626472      1.16120986477125      0.77134438395790
  C          -3.17297037703979     -0.77074590822939      1.64469596828392
  C          -1.15262733622743     -0.00367512556145      0.34415680724753
  C          -0.55548259585532     -1.24527212471242      0.26305037765255
  C           0.82586373153355     -1.36729106978282      0.07773497493734
  C           1.64985669337795     -0.26859565374126     -0.02946257506312
  C           1.06239996305364      0.98735525862194      0.04146698311716
  C          -0.33879506062051      1.14876199683693      0.22055188200861
  O          -0.93305113767080      2.33738642603419      0.27334699348714
  N           1.93773413077972      2.13162843208587     -0.07797749776256
  O           1.43123921560855      3.27075963360210     -0.03948693309370
  O           3.14071745165772      1.95597406549867     -0.21212652418018
  N           1.41721956397524     -2.69411336254403     -0.00380512701400
  O           2.63572110760536     -2.78573899974073     -0.15405539836556
  O           0.66888964324966     -3.66823077985410      0.08053773069009
  H          -3.54768411634121      0.47709788231904     -2.86688790243706
  H          -3.23981914633044      1.77730011663740     -1.70478911801812
  H          -1.92827974513549      0.68915986022495     -2.19088755455324
  H          -4.44738421893731     -0.15495651408217     -0.62924424866229
  H          -3.13618134496735     -1.24020769747098     -1.08955156364905
  H          -2.63719776794064     -0.58091640230213      2.58046191639577
  H          -4.23576099763827     -0.56783076646873      1.81175142087976
  H          -3.07369983135690     -1.83409502357277      1.40095032130738
  H          -1.15965446546537     -2.14214828029703      0.33812085893815
  H           2.71843779748149     -0.36844927950723     -0.16840040045682
  H          -0.23240260593978      3.02634019734445      0.16661690208244
