22
Coordinates from ORCA-job geoopt E -1398.644570105274
  C           5.52569896138859      0.62823061487077     -0.00504819335048
  C           4.47309406323329     -0.46031189334390     -0.14788432912924
  C           3.05860358115461      0.07877849497107     -0.13331697723977
  O           2.79610088857088      1.27192926900121     -0.30719563626907
  N           2.10329657644182     -0.87976758145948      0.06740110093484
  C           0.70783955724108     -0.76085138919349      0.07378423307312
  C          -0.02893519818106     -1.93950318981055      0.25829417246219
  C          -1.41135038206252     -1.90973699604769      0.27614015169760
  C          -2.09034507346164     -0.70556666201341      0.11104686494535
  C          -1.35800965453406      0.46538435551514     -0.06978825202504
  C           0.03238546125210      0.45212267348543     -0.08892826666517
  Cl         -2.16692879109219      2.00137506615196     -0.27991205867652
  Cl         -3.83747412904247     -0.69759224908109      0.13624602885870
  H           5.40625245123850      1.17170948443230      0.93757506221107
  H           5.46710624718641      1.35019940154286     -0.82428616192010
  H           6.52434574134581      0.18211294991630     -0.01649219566349
  H           4.57889142999738     -1.21491351916018      0.64082718318298
  H           4.60016807010437     -0.99549291966919     -1.09979725686012
  H           2.45002706432369     -1.82148133461739      0.20475151250357
  H           0.48775125466885     -2.88660783883946      0.38751978893521
  H          -1.97171479166300     -2.82774090289450      0.41835687570991
  H           0.57483602608953      1.37565355024331     -0.22845560981554
