10
Coordinates from ORCA-job geoopt E -230.229712734733
  C          -0.69448781228301      0.62072197509500     -0.31850777962069
  C           0.69262773700791      0.58494910358586      0.28305489365694
  O           1.45500900441491     -0.54193256941428     -0.17668446535551
  O          -1.46218077515133     -0.54133727238428      0.04307758520580
  H          -0.63374733026028      0.61512760014474     -1.41220923329715
  H          -1.20524478453921      1.54215195905181     -0.00199339208173
  H           0.62277228762514      0.57669061889962      1.38237959863998
  H           1.24300560519313      1.48332239213803     -0.01768330792160
  H           0.95258009903375     -1.33304387783913      0.06104748982088
  H          -1.59706504424102     -0.51101539617736      0.99996557915308
