31
Coordinates from ORCA-job geoopt E -468.227542786797
  C           3.69569433039488     -0.35615777229198     -0.08251260860820
  C           2.22332587348062     -0.32848990044699      0.31786856699283
  H           2.15503921275853     -0.45983791724018      1.40962078506253
  C           1.43818402269155     -1.46474016434705     -0.34113466735995
  C          -0.04847602424002     -1.41158921791056      0.01375907492413
  C          -0.67322392700314     -0.06343787856665     -0.37499985310499
  H          -0.51260917817043      0.07715520431698     -1.45751120386853
  C           0.10551539574431      1.05340465553474      0.33216384769705
  H           0.01237171788181      0.92057748440576      1.42285826518641
  C           1.58114789142196      1.01566106141084     -0.03573912159122
  O          -0.37743714940528      2.36973779533136     -0.02050016502162
  C          -2.19928593831406      0.01300700629804     -0.13963568688463
  C          -2.94922825936785     -1.04629599409724     -0.95172905492040
  C          -2.60154668827242     -0.06659407514493      1.33550961118766
  H           3.80259651078449     -0.22712051338449     -1.16698833100699
  H           4.25813392708899      0.44651339702591      0.40830676236267
  H           4.16164323706175     -1.31025582338548      0.18962216639934
  H           1.55481302454684     -1.38676034711543     -1.43309511231219
  H           1.86316251790215     -2.43220856680955     -0.04280816236248
  H          -0.57642951422754     -2.22850814763794     -0.49074530239367
  H          -0.16733509484924     -1.57517177708258      1.09430473636350
  H           1.68045216928099      1.19191588431086     -1.11795064381438
  H           2.10423402084378      1.83220634539459      0.47925484378928
  H          -1.27332257202320      2.46093152966949      0.32867842728103
  H          -2.52872486302253      0.99076146899664     -0.52266720181931
  H          -4.02741560172662     -0.85140594585069     -0.93099887732910
  H          -2.79103241518202     -2.05207301233525     -0.54627194327478
  H          -2.62715560585292     -1.04937133736518     -1.99987076762643
  H          -2.15250355578676      0.73434671656124      1.93338215796627
  H          -2.30734673942255     -1.02453370863372      1.77984873842630
  H          -3.68958534571606      0.02121570138944      1.43423719665988
