16
Coordinates from ORCA-job geoopt E -271.703409747287
  C          -2.73333989972019      1.14392265935519     -0.01044230179110
  C          -1.84939862724419     -0.09811576789689      0.05430525834280
  C          -0.36154985647075      0.24298792121102     -0.00717000467988
  C           0.51772560191693     -0.99645863484009      0.05821133915763
  C           1.98405729468690     -0.75060489028985     -0.00024107964429
  O           2.50448147389588      0.35127456999463     -0.09421866898277
  H          -2.56381631424076      1.69856508203844     -0.94081601963806
  H          -2.52042793615185      1.82137404183263      0.82481565230658
  H          -3.79588593932076      0.88185352373465      0.03385055344264
  H          -2.09979771673445     -0.77435172148898     -0.77443053325301
  H          -2.05566324126860     -0.65158049719569      0.98053349365305
  H          -0.10389494157983      0.91640960464907      0.82094673906393
  H          -0.14850447317043      0.79218980248768     -0.93380861674500
  H           0.29116397065029     -1.70427694567005     -0.75597312295059
  H           0.33941121522927     -1.57842452221658      0.97734903923040
  H           2.62108610152255     -1.65833900230517      0.04750438338767
