20
Coordinates from ORCA-job geoopt E -423.319248621654
  C          -0.52351646388629      1.05778247462660     -1.38448771229867
  C          -0.14314056834093      0.25574412799846     -0.15463372400737
  O          -1.25378148096866     -0.12786604384320      0.63150624447025
  C          -2.23287582936352     -0.93511698130048     -0.04023516680503
  O           0.59011796654929      1.00228459094122      0.79609175544149
  C           1.83180110482528      1.54678370000162      0.32331963772511
  O           0.58460505724821     -0.86435248548157     -0.61631889093690
  C           1.04251148172548     -1.76203219032285      0.41100212500579
  H          -1.12797237474280      0.45280831006995     -2.06401278497848
  H          -1.09411009586733      1.93996904720230     -1.08212625878518
  H           0.37103740371586      1.37475342981797     -1.92530828984664
  H          -1.76839977266260     -1.76603182809755     -0.58317891371041
  H          -2.83928799907758     -0.33660891782034     -0.73021539162133
  H          -2.87870482834226     -1.33705494365467      0.74339728460143
  H           1.66640650687564      2.41641799861367     -0.32360788920260
  H           2.42411328787089      0.79606935936166     -0.21199948225518
  H           2.37833908553042      1.86505054073750      1.21373707492359
  H           1.58388751407204     -2.55597822233372     -0.10741468068841
  H           0.20342675747334     -2.19794297659754      0.96499032028504
  H           1.71977064536551     -1.25873787251904      1.11021342698351
