18
Coordinates from ORCA-job geoopt E -460.041705839657
  C          -3.40135955357909      0.60620155816680      0.00408194889777
  O          -1.96174241081549      0.77526438765871      0.00602825638085
  C          -1.23827076277600     -0.35659878379859     -0.00296161313951
  O          -1.74419956514398     -1.47007644794115     -0.01174403800767
  C           0.22295954154026     -0.10671975090070     -0.00100761051977
  C           1.08194687447754     -1.21160875426242     -0.00137588040924
  C           2.45769546457031     -1.02328515169707     -0.00003586445928
  C           2.98537958402927      0.26691098403197      0.00132393926222
  C           2.13313543725054      1.36943709649589      0.00153656356509
  C           0.75525052558840      1.18848077068943      0.00054657682877
  H          -3.71807711344298      0.07445516689396     -0.89693124761418
  H          -3.80891133488607      1.61680963870722      0.01313400930131
  H          -3.71869286777679      0.05815514782645      0.89504642225450
  H           0.66441539659059     -2.21347325700179     -0.00247596404912
  H           3.12043056196359     -1.88351043907486     -0.00007542450723
  H           4.06179782118536      0.41321726866424      0.00218820891528
  H           2.54373559458826      2.37476721906585      0.00243899379628
  H           0.09732148823627      2.05042688547606      0.00060710800394
