26
Coordinates from ORCA-job geoopt E -539.823774017813
  C          -4.53009091521319      0.86915524463293      0.61988110600213
  C          -3.08487591030180      0.40535921648376      0.76912897296293
  C          -2.40243848744144      0.18146787498480     -0.58851711230619
  C          -0.97409821778601     -0.27475016451741     -0.44538908651669
  C          -0.64511849019578     -1.62893475206973     -0.45169686587426
  C           0.67346449774812     -2.04631859352287     -0.26215736237479
  C           1.67537241702672     -1.11110329357243     -0.06343145824075
  C           1.35916884972317      0.25868982139166     -0.05171369320962
  C           0.04411806476384      0.66819402970203     -0.24129717293909
  O           2.43149784095129      1.09126747771197      0.14780784088458
  C           2.17304859375886      2.50294979271889      0.17337607269151
  O           2.97430783866545     -1.53799418355787      0.11523139485579
  H          -5.00323419771634      1.02016012277394      1.59606793750973
  H          -4.58378223299936      1.81648722865629      0.07062917272575
  H          -5.12452254679929      0.13032901316222      0.06958920908429
  H          -3.04784829236942     -0.52976675706730      1.34393664865191
  H          -2.50977322460644      1.14725907340953      1.33931280913072
  H          -2.43874047125037      1.11745483686122     -1.16145357160346
  H          -2.97162066623872     -0.56734258032121     -1.15388504139361
  H          -1.42257013740221     -2.37247977241724     -0.60856068314327
  H           0.93374103229240     -3.10123528306938     -0.27272194851527
  H          -0.20602687386435      1.72462539999759     -0.23596698774756
  H           1.48597330655210      2.75939754820572      0.98807660940506
  H           1.76127517441940      2.84215902265874     -0.78424511796775
  H           3.14003403592916      2.97765275833787      0.34553641374602
  H           3.53757897205421     -0.75813585427372      0.23113221878189
