15
Coordinates from ORCA-job geoopt E -196.464039938845
  C          -2.20378941396576      0.30089162638420      0.29424581991049
  C          -1.00294623371766      0.18008728844595     -0.65220455050887
  C           0.00310079711073     -0.81037832727823     -0.14723476836938
  C           1.27106867421013     -0.58113294621476      0.21116288423376
  C           2.00724919496007      0.72154037895477      0.18423868118899
  H          -2.68178807533203     -0.67333311812059      0.44741890304300
  H          -2.95637072056774      0.98561629515132     -0.11127475836101
  H          -1.89102957986443      0.67905413055760      1.27373906075432
  H          -1.36452310201169     -0.15361589175214     -1.63530764275065
  H          -0.54938223315447      1.16508695405004     -0.80178810900634
  H          -0.37027461933471     -1.83204588076433     -0.05068759102380
  H           1.85298200743172     -1.43241560379324      0.56789923890729
  H           2.40771524786107      0.95532671036878      1.17880100847791
  H           1.38526383770532      1.56026616492886     -0.13724118981429
  H           2.87281044706945      0.66226644198178     -0.48826937078140
