15
Coordinates from ORCA-job geoopt E -511.915100329780
  C          -1.07782200068877     -1.87784242394287      0.00013681811314
  C           0.25738248394182     -1.49464490635908      0.00012130955439
  C           0.53594275608264     -0.13141185243541     -0.00003085407668
  C          -0.44968969181033      0.84759339287857     -0.00016082075329
  C          -1.77797949365509      0.43277855453912     -0.00010848645841
  C          -2.09435748423961     -0.92916378715338      0.00003863758372
  O          -2.73570509042299      1.40757705177144     -0.00020720892004
  N           1.93647890776920      0.30016153921967      0.00000688720291
  O           2.81327333477981     -0.56271614879144      0.00062011475719
  O           2.17724851637721      1.50636680172910     -0.00051758772710
  H          -1.33299198368632     -2.93269247781449      0.00022970307209
  H           1.05429527880605     -2.22720508201967      0.00019522880297
  H          -0.20169727591100      1.90214412352441     -0.00026734169259
  H          -3.13690621145717     -1.23716559990684      0.00007823593644
  H          -3.61419290018544      0.99985931866086     -0.00013789199474
