24
Coordinates from ORCA-job geoopt E -464.400262890150
  C          -2.68107825445940     -1.71762102841372      0.82858227575912
  C          -2.33219212511430     -1.00522467227491     -0.48507657224416
  C          -1.30518303752559      0.08161150709334     -0.29356855501036
  C          -1.71042199008881      1.39782011626310     -0.19891992114746
  C          -0.79348822017973      2.44518347622509      0.02992657206716
  C           0.54594081697003      2.17643096713126      0.16378449075798
  C           1.01727808637706      0.84386028949320      0.07109908913530
  C           0.08599032368565     -0.22273522002322     -0.15916578449566
  C           0.59359942571012     -1.54516246761547     -0.25159246501587
  C           1.93898356404558     -1.80054163439982     -0.12190734407032
  C           2.85079466923973     -0.74795921470437      0.10726017772619
  C           2.39696318136310      0.54533456875907      0.19966314216506
  H          -1.79795722688933     -2.18138591144062      1.28014386498720
  H          -3.42621578053890     -2.50164874487385      0.65681741476693
  H          -3.09468411317476     -1.00679607397260      1.55216256017673
  H          -3.24152647232120     -0.55530486977065     -0.89840808217264
  H          -1.98252066766859     -1.73953727866774     -1.22019549038976
  H          -2.76736122433775      1.63323180097042     -0.30282511678127
  H          -1.15623958575009      3.46721075688879      0.09739760793727
  H           1.26186277702969      2.97565697304650      0.33948322178173
  H          -0.08770580854491     -2.37119281162202     -0.42795337088325
  H           2.30444408306385     -2.82090884215822     -0.19758777071813
  H           3.91072316902467     -0.96430534840001      0.20754856089102
  H           3.09126139138387      1.36429345826643      0.37256979817719
