18
Coordinates from ORCA-job geoopt E -272.911400740002
  C           2.08059867646515     -0.99695858369823      0.05057889400212
  C           0.84765554189722     -0.12292515356745      0.28481326781038
  C           1.22869204243778      1.35778151773399      0.26413584629795
  C          -0.22869357048589     -0.45520311797334     -0.75734694642168
  C          -1.53520840405792      0.31004748679980     -0.62169809237669
  O          -2.15618622164121      0.13721795981425      0.66829081054475
  H           1.82499408511065     -2.06262973059794      0.07673094659947
  H           2.84632689787405     -0.81438092283973      0.81305531276968
  H           2.52529574389823     -0.78228969564297     -0.92978969227658
  H           0.44620940187103     -0.36168075066121      1.28020357195074
  H           1.57107894058411      1.65459010167417     -0.73586150923529
  H           2.04225551211086      1.55851094421410      0.97045391081268
  H           0.38831008341841      2.00438909094324      0.53804057893513
  H          -0.44843951361053     -1.53241846968695     -0.71706147974835
  H           0.17068946785510     -0.25520252584076     -1.76335775292257
  H          -1.37760729320026      1.38818942985170     -0.73044457658824
  H          -2.22882973680187     -0.00404545577120     -1.41588765961030
  H          -2.26834802892491     -0.81297199015149      0.80470412305680
