30
Coordinates from ORCA-job geoopt E -392.989395128362
  C          -5.02894125588520      0.25247898937027      0.10125148445353
  C          -3.64080277106724      0.65885915971892     -0.38632843519920
  C          -2.53319062154668     -0.22907228751949      0.17858247921333
  C          -1.13846767389905      0.16402306556234     -0.30488670145200
  C          -0.03410416878362     -0.71984285006055      0.27455694925333
  C           1.36034024768534     -0.38741440519040     -0.24628120536750
  C           1.85140947720329      1.03163191923862      0.10586581248694
  C           3.40243135939296      0.95792316315595      0.11755400266747
  C           3.75376707830883     -0.53666888791777     -0.07637722389379
  C           2.47373523718327     -1.28016645209870      0.31543750935834
  H          -5.80799517239769      0.90143950313653     -0.31360024877022
  H          -5.09341483430741      0.30967731674992      1.19436832184800
  H          -5.26178518657233     -0.77826518757042     -0.19140919947048
  H          -3.44326695767885      1.70337491679703     -0.10787090473027
  H          -3.60972794910317      0.62021997425614     -1.48415541274921
  H          -2.73226881064647     -1.27542509775394     -0.09671413613347
  H          -2.56204057423221     -0.18816280407226      1.27761691718690
  H          -0.94828933663665      1.21349243682509     -0.03898674858116
  H          -1.10583441731933      0.11130570275991     -1.40336416223934
  H          -0.03192816315788     -0.62827709389132      1.37170338467243
  H          -0.26279320505670     -1.77201423255453      0.04882878700994
  H           1.36201807618783     -0.49744224701426     -1.34282769567112
  H           1.47482818029663      1.78694153057216     -0.59143215839862
  H           1.47577988392978      1.29880825808863      1.10280734102895
  H           3.84817989915847      1.57716016703695     -0.66766833064317
  H           3.79432699729461      1.32505203072384      1.07215192781674
  H           3.97903569978082     -0.73696982383354     -1.13132288465032
  H           4.62727110228038     -0.84366841219687      0.50864899519684
  H           2.43363276656635     -2.30636751584964     -0.06770422692734
  H           2.38114712702194     -1.32498724796859      1.41084286588448
