22
Coordinates from ORCA-job geoopt E -3220.661698144891
  C           1.23913089974931      0.55402769223848     -1.51914497634033
  C           2.61604814610911      0.66707057146299     -1.64875940201299
  C           3.43993152950953      0.41180463088407     -0.55737462955497
  C           2.88044129713277      0.04302988223863      0.66730419570810
  C           1.50155837753750     -0.07019733665768      0.79866569969168
  C           0.68091888384400      0.18563861295514     -0.29608697525421
  C          -0.79264902248852      0.06496808841279     -0.15051659109123
  C          -1.55459187970565      1.14297797293155      0.31139330916900
  C          -2.93972170307517      1.02650744448246      0.44375173424773
  C          -3.57906241591177     -0.16031870903942      0.11814802044398
  C          -2.83251416799464     -1.23557291986097     -0.33990075410266
  C          -1.44683282816517     -1.12801163631415     -0.47437299840194
  Cl         -0.51184465549435     -2.48116697678297     -1.04079378198993
  Cl         -3.66235802989713     -2.71271717379624     -0.73696290423955
  Cl         -3.90257896824145      2.35831574996513      1.01604826501659
  Cl         -0.75627189555544      2.63542693084580      0.71294732782134
  Cl          3.88666442878248     -0.28217527902730      2.05617380244557
  Cl          5.16856846841952      0.55964062794605     -0.74747189148050
  H           0.59910541519068      0.75347478517301     -2.37302196174748
  H           3.05624992363829      0.95409693072245     -2.59788745988939
  H           1.07116617601407     -0.35683948157786      1.75293389849768
  H          -4.65491486529798     -0.24693366570195      0.22087907736351
