21
Coordinates from ORCA-job geoopt E -499.347839827963
  C          -3.75519420175749     -0.92166050571307      1.20283708847871
  C          -3.05277800706323     -0.19537217737530      0.08487625126926
  O          -1.61680015145456     -0.29832512919380      0.33950526264927
  C          -0.80792144283206      0.29026094677414     -0.55280637969206
  O          -1.22063679234266      0.88799779873071     -1.53816253626085
  C           0.62934666495266      0.13935554272568     -0.21775423646354
  C           1.05652976738561     -0.53790668777172      0.93089419574282
  C           2.41486117810953     -0.65077342252219      1.20215451451141
  C           3.35194832343232     -0.09301969491745      0.33454995744864
  C           2.92904467488432      0.58122243643049     -0.80979830152607
  C           1.57332985710505      0.69842020749944     -1.08651095944463
  H          -3.52876258397791     -0.46739320979196      2.17231555221574
  H          -4.83593276986160     -0.86289369015760      1.04045824760474
  H          -3.46926257285291     -1.97763467099116      1.22855462151051
  H          -3.32070862554543      0.86572593652625      0.05173891897333
  H          -3.26163680735222     -0.64380556214698     -0.89193686747086
  H           0.33179874919162     -0.97382149478177      1.60966295414036
  H           2.74373989906343     -1.17598785414346      2.09398631668403
  H           4.41274383586009     -0.18366551242519      0.55046164704239
  H           3.65801559724318      1.01633095310150     -1.48694322433855
  H           1.23708652741227      1.22234906424345     -1.97563284417466
