21
Coordinates from ORCA-job geoopt E -312.215914631672
  C          -3.31711847025239     -0.34687070079956      0.10569236161815
  C          -1.99705193321596      0.25962390874609     -0.36296701515965
  C          -0.78958187823897     -0.46071671281346      0.23591693119920
  C           0.55486382610456      0.05010619709282     -0.25710557188069
  H           0.56892343137791      0.02260062009536     -1.36044903968893
  C           1.71597420184933     -0.78816268941061      0.27149954780392
  C           3.08264008780153     -0.31079565613656     -0.21322960348027
  O           0.67255618940822      1.42981409923388      0.16950770724927
  H          -3.40862205399460     -0.29266357407009      1.19700322594170
  H          -4.17556474632161      0.17761865824379     -0.32766987550801
  H          -3.38951820746014     -1.40259738799006     -0.18140956740109
  H          -1.93623189087328      0.21168383550996     -1.45908081423281
  H          -1.96766663835428      1.32238257595394     -0.09397228542281
  H          -0.81501048475482     -0.38566191078489      1.33315801244814
  H          -0.85046383253831     -1.52984464657344     -0.00776637462468
  H           1.68082203371287     -0.78631432080673      1.36979932453419
  H           1.55442178735092     -1.82456797889011     -0.05241237341688
  H           3.12436489707139     -0.28475976198020     -1.30877656959172
  H           3.32039880088311      0.69252386471499      0.15876860258061
  H           3.87602946141262     -0.97997406106384      0.13530025733267
  H           1.46586083323187      1.79614328892871     -0.24131547330032
