15
Coordinates from ORCA-job geoopt E -233.589807371805
  C          -2.50294674715236      0.01837849739096     -0.23108129448828
  C          -1.20569615561638     -0.01345733518714      0.57273115187880
  C           0.00560044973592      0.01182802702874     -0.33736943141781
  O           1.19424658724729     -0.01796830074848      0.46187610194677
  C           2.36837763898997      0.00254188731551     -0.34797150231893
  H          -3.37420830693898     -0.00066836742780      0.43074135557514
  H          -2.56656780023587      0.92542517240325     -0.84285940499241
  H          -2.57309774790788     -0.84499318680264     -0.90244021740972
  H          -1.16922057806388     -0.91808495520980      1.19301603917748
  H          -1.16218357933515      0.84777339743457      1.25156904890358
  H          -0.00383347041349     -0.85730012650121     -1.01688445013534
  H           0.00220272730469      0.92300284258126     -0.95947441925651
  H           2.41345134072128      0.91645380800962     -0.95896580315013
  H           2.40588817109949     -0.87147606242620     -1.01523094938711
  H           3.23079273886538     -0.02220336836065      0.32346214207447
