17
Coordinates from ORCA-job geoopt E -438.065872188427
  C          -3.71159696863650     -0.53803430802808     -0.43825862654454
  C          -2.29805072826522     -0.48821471281603      0.13328015633109
  C          -1.56830152760234      0.79434287508117     -0.26391787438307
  C          -0.19047338739059      0.93400037806428      0.34405458901393
  O           0.61269203730017     -0.14619342204934     -0.24332316079580
  N           1.92568896214062     -0.20670311953366      0.22097265891127
  O           2.28809349774546      0.60780991024026      1.03919992476076
  O           2.56453239676975     -1.10646769011502     -0.27810802944637
  H          -4.22561480371678     -1.46012487776700     -0.14751969679117
  H          -4.31036513620839      0.30777528720334     -0.08067485519836
  H          -3.69417877699902     -0.49546310122774     -1.53350613363683
  H          -2.33548256527755     -0.55290830670272      1.22899605620305
  H          -1.73015573139168     -1.35996291406083     -0.21448173734252
  H          -1.49667313144834      0.87531713360641     -1.35629194376007
  H          -2.13886054799345      1.66741637363628      0.07981332410659
  H           0.27864542850899      1.88909102632439      0.08858610303496
  H          -0.20630906963512      0.80169060384430      1.43103183183707
