19
Coordinates from ORCA-job geoopt E -365.179186383016
  C           2.17185460238641      1.20217515679255      0.05228228461557
  C           1.40674162040150     -0.09104903972276     -0.04633942909413
  O           1.99288604182781     -1.18946530721498     -0.19047481108197
  N           0.06997464494327     -0.01740107590929      0.01903323092573
  C          -0.78728776868269     -1.21546451641802     -0.06007057214834
  C          -2.17389775433380     -0.67610518688467      0.28785469363103
  C          -2.13297800135705      0.75917889415067     -0.24573600423975
  C          -0.72408192589881      1.22361066295841      0.12092313814406
  H           2.03775764946354      1.78938821756192     -0.86380190124842
  H           3.23296419642878      0.98116185603208      0.17549298693751
  H           1.82481679227818      1.81520117618789      0.89007532139385
  H          -0.75853186650565     -1.63328147096042     -1.07557490844344
  H          -0.43474058479655     -1.98503382320691      0.63366493590733
  H          -2.97079910491487     -1.27864798584505     -0.15515622011067
  H          -2.30950059316875     -0.66790759668398      1.37572758471511
  H          -2.25212712599426      0.75825862336494     -1.33562415171598
  H          -2.90168304102005      1.40474565640417      0.18657574164713
  H          -0.34006358279415      1.99148211495925     -0.55683813312637
  H          -0.69083606636287      1.61648430103420      1.14633859349173
