16
Coordinates from ORCA-job geoopt E -271.717624753748
  C           1.49075445329797      0.91653193870261      0.48987070680508
  C           0.71282065896287     -0.04819110098874     -0.42609588299147
  C           1.25522572236674     -1.46857186057539     -0.31547528427154
  C          -0.75209746297756      0.04363556463488     -0.05005960803361
  O          -1.26741664651718     -0.75481347333016      0.72806644660724
  C          -1.54605848686126      1.15549642763031     -0.66653285947996
  H           1.12490130430541      1.94473999210879      0.40887328728271
  H           1.40646236237101      0.59831542253039      1.53502357645534
  H           2.54971057536102      0.90824220395421      0.21296018471438
  H           0.80902474173567      0.31422509415434     -1.45882422228444
  H           0.68270312856963     -2.16478508333132     -0.93717886972474
  H           1.21643622325218     -1.82354657291993      0.71937715551687
  H           2.29916069669875     -1.49463980805863     -0.64394285578936
  H          -2.46957634890946      1.33708495928067     -0.11283867074056
  H          -1.80040658147167      0.84837251913627     -1.69022531856960
  H          -0.95571997838412      2.07286490417170     -0.75084742739633
