16
Coordinates from ORCA-job geoopt E -342.870005523338
  C           2.73686248974098      0.08773025739045     -0.72761267513282
  C           1.94225033352647     -0.11217680800058      0.56969193280423
  C           0.46590035003620     -0.06570450964691      0.31593576889480
  C          -0.24076928968786      1.13734351168548      0.41426114707129
  N          -1.54713764305942      1.23462288807752      0.15552225554689
  C          -2.15885463384661      0.09958215819676     -0.20981694158869
  C          -1.46983594832851     -1.09968746809826     -0.30830630129672
  N          -0.15958231563562     -1.19550151482656     -0.04947111681423
  H           2.50157696162636      1.05664238931708     -1.18130147115769
  H           2.50221496489054     -0.69578656574747     -1.45557568126428
  H           3.81211261322043      0.05608722588689     -0.52571302560043
  H           2.20853709194740      0.67297044886259      1.28589711967869
  H           2.19898180290573     -1.07787507994893      1.01781364406274
  H           0.27490527739784      2.04748310103353      0.71689041618851
  H          -3.22363352804916      0.14771301860234     -0.42587107755951
  H          -1.98806513058479     -2.01072367868393     -0.60135772213276
