13
Coordinates from ORCA-job geoopt E -323.593024511952
  C          -2.06360953542109      0.36665694038842      0.74062426348661
  C          -1.50080592852552     -0.57848483047461     -0.31621975953160
  C          -0.25599042712565     -0.05026526827615     -0.99457600017078
  N           0.92661046252877      0.07428638329613     -0.05757909402759
  O           1.78534135051867      0.90310816821923     -0.34182047537871
  O           0.98959289443765     -0.66683791661164      0.91407860762205
  H          -1.36360930122411      0.50738211213368      1.57122055738748
  H          -2.28151635465007      1.34968123892871      0.30888858629134
  H          -2.99333974479513     -0.03365315902938      1.15615813413892
  H          -2.23402274933106     -0.71936594945909     -1.11961966034406
  H          -1.30395501428498     -1.56949909083862      0.10536773845167
  H           0.10208499025243     -0.72409337027422     -1.78226247731936
  H          -0.38988472217991      0.94644693709754     -1.42192394070594
