22
Coordinates from ORCA-job geoopt E -425.310439938850
  C          -2.80102244917044      0.56002487346348     -0.55197797635414
  C          -1.98608443700062     -0.22204860830855     -1.36663286529766
  C          -0.78250852495049     -0.72608943891296     -0.87604870585176
  C          -0.37377837297443     -0.45939322018231      0.43372306570500
  C          -1.20160152887249      0.32780288655237      1.24270740667459
  C          -2.40434481827467      0.83263767198120      0.75679647769288
  C           0.94556992573673     -0.96478347335199      0.95757334085378
  C           2.01379084102506      0.13984689712716      1.03380197396517
  C           2.33852531529465      0.78255565588146     -0.30447187285780
  O           2.82102785893375     -0.16205701314681     -1.27986857929061
  H          -3.74038175094795      0.95216169674467     -0.93181444466351
  H          -2.28753941816243     -0.44219297900792     -2.38735895373117
  H          -0.15054735605085     -1.33707138483566     -1.51693397772442
  H          -0.89974131334697      0.54226074721699      2.26597551631141
  H          -3.03665496714416      1.43710047538422      1.40180293709546
  H           1.30676713203360     -1.77844399931269      0.31884556258416
  H           0.80682170898892     -1.37945333391775      1.96335367265202
  H           2.93356755531836     -0.27875721949038      1.46494884757835
  H           1.67577674964262      0.93374642366237      1.71368781495743
  H           1.44141599878905      1.22988153795658     -0.74751049719162
  H           3.07700222454513      1.58461309398899     -0.16047579171945
  H           3.61318083248764     -0.57455767589249     -0.91082389998810
