13
Coordinates from ORCA-job geoopt E -361.539805256831
  C           0.40306443490649     -1.27983194327332     -0.00006223244033
  C           1.76112507122570     -0.98604980989540     -0.00006668967328
  N           2.24389729821822      0.26379999043327     -0.00007268415636
  C           1.35520368510265      1.27270100801527     -0.00007338379799
  C          -0.01755214521031      1.08538920263732     -0.00005715898297
  C          -0.50573597167261     -0.22283982745963     -0.00005162140747
  C          -1.95259662374011     -0.51450997006892     -0.00002821297722
  O          -2.82008313243881      0.34527394032198      0.00013915698897
  H           0.05867083570819     -2.31060992507311     -0.00006585414216
  H           2.49420504921648     -1.79001454491942     -0.00006949769341
  H           1.76865585013863      2.27902406213999     -0.00008655916087
  H          -0.69556442946178      1.93323746090099     -0.00005718098463
  H          -2.21806289749272     -1.58986795885903     -0.00004392637227
