12
Coordinates from ORCA-job geoopt E -492.071506861325
  C          -1.81390990659617     -0.02163223396489     -0.98371707893123
  C          -0.95997943154436      0.32649012586937      0.21732589562967
  H          -1.05952772629516      1.39219517466106      0.46901457557399
  C           0.52221534040031      0.09954966117484     -0.07222504766843
  F           0.96147423629088      0.90887761558505     -1.06594954359048
  F           1.28998665659828      0.35695360204867      1.01678679818884
  F           0.79141085343586     -1.17419243654695     -0.44517449873927
  O          -1.35158084084741     -0.49711211752982      1.31139258888244
  H          -1.73919251823462     -1.08845690155829     -1.21538432288452
  H          -1.50853526420773      0.55606165789202     -1.86012047321875
  H          -2.85632580402436      0.21795854996856     -0.75976562995484
  H          -1.03120265917553     -0.09630151219960      2.13099277071258
