14
Coordinates from ORCA-job geoopt E -249.634487952846
  C           2.24264734034633      0.22069720871473      0.10175895773899
  O           0.89645014800756      0.29187478513971     -0.36386860138882
  C           0.08151265683417     -0.72892941248322      0.22290078279821
  C          -1.34496553100141     -0.55491946316129     -0.25709074792875
  N          -2.00377431358165      0.69437747300138      0.15665728933990
  H           2.80241427213132      1.02082487250881     -0.38978571554756
  H           2.69964353617386     -0.74750832876975     -0.15180528922040
  H           2.29317865337984      0.36139431991485      1.19162343546380
  H           0.46196356500668     -1.72320032842529     -0.06706356675254
  H           0.12805795981139     -0.65360133003196      1.32311025937158
  H          -1.36393316935661     -0.61627745141111     -1.35225398329457
  H          -1.92721630009507     -1.40587578258941      0.11589657617256
  H          -1.44232930422422      1.47251875980197     -0.17890416407889
  H          -1.95352076993220      0.75490742089057      1.17116230652648
