26
Coordinates from ORCA-job geoopt E -614.111850224834
  C           4.83965478436354      0.70709233934034      0.35222682204570
  C           3.52491872590771      0.96448948004249     -0.33766955439686
  O           2.70505129109370     -0.23677126498879     -0.16788347026516
  C           1.48300123494904     -0.21109377856968     -0.71888147450420
  O           1.03503899558487      0.75217154001484     -1.32027200490156
  C           0.75992472084245     -1.51737312546138     -0.53039349580425
  C          -0.73362773728815     -1.39300529629776     -0.77236567576330
  C          -1.39090740933643     -0.43473019455973      0.18426819342168
  O          -0.86010955043261      0.02962841105474      1.18065981354573
  O          -2.65224639775024     -0.16146252623926     -0.17832117211233
  C          -3.40807787901680      0.73015994780019      0.70344227318366
  C          -4.77879634846499      0.89624820370662      0.09988145716135
  H           5.47693319202840      1.59032556290551      0.24420727300438
  H           4.69445885943037      0.51782904249680      1.42021738961312
  H           5.35900763191254     -0.14692748459384     -0.09317844739389
  H           3.65176885421880      1.14506761613210     -1.41002486859744
  H           2.98846115294305      1.81052441358437      0.10380008473586
  H           0.97769526026832     -1.90742536945514      0.46809018578118
  H           1.19214233910663     -2.22826845278707     -1.24630487623315
  H          -1.21524740989566     -2.36961253083799     -0.63846157337965
  H          -0.95391905297130     -1.07630535728345     -1.79658396908432
  H          -3.44957933257360      0.27484455727541      1.69822297793229
  H          -2.87123557428168      1.68184512053063      0.77054386988249
  H          -5.37015124546717      1.55984723380975      0.73845308377602
  H          -4.71934439829920      1.34332336405861     -0.89716006821288
  H          -5.29841362787156     -0.06420439027833      0.02901838666553
