27
Coordinates from ORCA-job geoopt E -390.810423356605
  C           5.04662982446493      0.20235456517833     -0.10205087965061
  C           3.71267570653184     -0.49988233628731     -0.34120980853345
  C           2.51665786295705      0.33045442074587      0.12206342683084
  C           1.17612172558110     -0.36743862147766     -0.09958039271142
  C          -0.02043826246543      0.47033971493973      0.34795049531955
  C          -1.35740079935299     -0.24249693047193      0.15268599062655
  C          -2.55180273675302      0.61542050566690      0.56658884026774
  C          -3.88958193205620     -0.09827918850429      0.46206308179123
  O          -4.19792465027959     -0.52416473141486     -0.88132152095819
  H           5.89010314552561     -0.40788358735409     -0.44315959161657
  H           5.19498197542224      0.41103136335292      0.96412050364610
  H           5.08852859109351      1.15892239891602     -0.63641261958248
  H           3.70578751993142     -1.46613185500797      0.18218838187158
  H           3.60199147915232     -0.72669555619699     -1.41072025924013
  H           2.63188544709636      0.56565145369432      1.19047927677799
  H           2.51820905093302      1.29419120630533     -0.40842726885724
  H           1.17193823670621     -1.32494246403136      0.44181384226585
  H           1.06683419302210     -0.61425682992413     -1.16585095131236
  H           0.09757641911260      0.73667318564605      1.40858193121620
  H          -0.02892186146797      1.41808650980065     -0.21022185323862
  H          -1.36334182649443     -1.17462235828138      0.73661161068309
  H          -1.45954473834752     -0.53361320793081     -0.90133026156145
  H          -2.58456769070832      1.53150353746191     -0.04182195163302
  H          -2.43036016352566      0.93865503540724      1.61057421013377
  H          -3.88171411144443     -1.01418623148516      1.06449710663325
  H          -4.69421008176874      0.54856772375876      0.84184546299753
  H          -4.20746313646602      0.26785544359394     -1.43465757826572
