16
Coordinates from ORCA-job geoopt E -362.893054429107
  C           3.23635985051857      0.94948574239655     -0.57739183234697
  C           2.24967850696129     -0.03039054020062      0.04963127531082
  C           0.79822614806940      0.36922240219077     -0.22862262803481
  C          -0.14499417084919     -0.62434284892572      0.40626185099940
  N          -1.60393190548352     -0.30871789037469      0.17360927456494
  O          -2.42235772308031     -1.08079715269121      0.66407790447221
  O          -1.90658895375600      0.68111096060177     -0.47870885327438
  H           4.27078695231722      0.65378026521751     -0.37382050860822
  H           3.10750225181507      0.99455079071558     -1.66488340586344
  H           3.09157302090155      1.96085369633450     -0.18061027003546
  H           2.43035605083991     -1.04031867992326     -0.34137215682209
  H           2.41253090518916     -0.07885575127970      1.13429627611109
  H           0.60758950522225      1.37194553380188      0.17148104881312
  H           0.62639979957700      0.40619427788110     -1.31071336502526
  H          -0.04354255946864     -0.67020764346954      1.49609354620174
  H          -0.01799036667375     -1.63989897987491      0.01542449153733
