18
Coordinates from ORCA-job geoopt E -272.911179080737
  C          -2.52905710664379     -0.61893943913634     -0.09881318702160
  C          -1.14518415713851     -0.74657233458805      0.53390760411866
  C          -0.03271262045786     -0.02290228566746     -0.23791520237353
  H          -0.00080867993592     -0.43223048369932     -1.25988410785083
  C          -0.27322195925327      1.48455942186436     -0.31669977288781
  C           1.30626852232626     -0.33653464981967      0.42717657540936
  O           2.44540903568713      0.16814242000543     -0.29566962876564
  H          -2.51360875932175     -0.94477924298717     -1.14577570971837
  H          -3.25822614438420     -1.23930604301010      0.43333926562011
  H          -2.89642895062959      0.41203514644072     -0.07403695385248
  H          -0.88282033230509     -1.81070742266272      0.60946023333251
  H          -1.17405553397564     -0.35847194733591      1.56254581849657
  H          -0.35064122573198      1.91468234810683      0.69051574825362
  H          -1.19732747005074      1.71587242527893     -0.85522061002178
  H           0.53875147793572      1.99756374925741     -0.84486852388735
  H           1.44897865840117     -1.42189483446313      0.47901714446988
  H           1.31115708602216      0.05542574138444      1.45673848865005
  H           2.44705811485591      1.12945440993177     -0.20894868717138
