12
Coordinates from ORCA-job geoopt E -248.483548672513
  C          -1.11844857065421     -1.53718240352103     -0.01350576179952
  C          -0.41750443965707     -0.21236307572778     -0.13645855168317
  O          -1.03549953075537      0.82114124189194     -0.46450208685293
  N           0.89986755364321     -0.19710707462117      0.12095216192843
  C           1.69379308104340      1.02227351838653      0.03455680960054
  H          -0.45917987894395     -2.34525705349915      0.31221072282852
  H          -1.94330092080869     -1.43457161647102      0.69840607966714
  H          -1.55224375181467     -1.79644483476522     -0.98470896650988
  H           1.35444923981728     -1.05877944947976      0.38220887158449
  H           2.72449399198144      0.78419515655392      0.30193477011156
  H           1.31795878875620      1.78649681734017      0.72306150578827
  H           1.67786770899243      1.43320661041257     -0.98055570276345
