8
Coordinates from ORCA-job geoopt E -1756.247939627402
  C           0.71120297886910     -0.55345997219824      0.21600380412901
  C          -0.57806768106994      0.16606902009537     -0.30998991941648
  F          -0.47749100950375      0.27709690017767     -1.64778979717096
  Cl         -0.73565259454432      1.78337784969393      0.41612425733842
  Cl         -2.00370480485854     -0.83929618176465      0.08480992630091
  F           0.64846597839935     -0.68252594723298      1.54705784494032
  F           0.77098202425105     -1.77867191973453     -0.32972492098139
  Cl          2.18289554135704      0.35651832566344     -0.23653923193984
