11
Coordinates from ORCA-job geoopt E -578.675680328310
  C          -2.53055816932030      0.07780307070003     -0.00004666029988
  C          -1.12099599654042     -0.51614930751170      0.00007096119176
  C          -0.09674267785087      0.59634759882686     -0.00001218134167
  Cl          1.62012512056537     -0.07702227163300     -0.00019665211371
  H          -2.69832941841690      0.69909080909218     -0.88666859823907
  H          -3.28059433834275     -0.71914718671461     -0.00025117357839
  H          -2.69857319352994      0.69887141184352      0.88668077652128
  H          -0.97909995846747     -1.14773791615100      0.88447856695483
  H          -0.97903309714998     -1.14796001676985     -0.88416567523828
  H          -0.16812571029768      1.22165960330802      0.89314343468990
  H          -0.16831880414906      1.22171522660955     -0.89311292574676
