13
Coordinates from ORCA-job geoopt E -323.597628719788
  C          -1.54020828930155      1.03284406456446     -0.37571885259524
  C          -0.69687992676089     -0.22072959391033     -0.40879073796483
  C          -1.15805942300090     -1.28898367199225      0.57729557371033
  N           0.75575833063822      0.09345953317253     -0.05941385643479
  O           1.00340811576827      1.08712677436666      0.61115191318527
  O           1.60735985482414     -0.70330619714341     -0.44030308204744
  H          -2.53730240034290      0.77152573032325     -0.74278313023221
  H          -1.63888277687787      1.42293481423927      0.64070950073663
  H          -1.12983901772777      1.81199002829279     -1.02385183341843
  H          -0.63340636712730     -0.63918201934512     -1.41771511970369
  H          -0.52716660520917     -2.18014677792651      0.52504350435008
  H          -2.18182753512562     -1.57104280885454      0.31625735610719
  H          -1.15500772695665     -0.89631733938679      1.59912430870713
