15
Coordinates from ORCA-job geoopt E -511.920075235164
  C           0.03504940420629     -1.21931970997334     -0.00005105436540
  C           1.41547588067108     -1.21795572136112     -0.00007165727483
  C           2.10831727401781      0.00014004171774      0.00000501421389
  C           1.41571209794812      1.21858350770331      0.00010516896382
  C           0.03634932709654      1.21910848380111      0.00012442576400
  C          -0.64590641386420     -0.00041573770814      0.00004736249221
  N          -2.08923864600258     -0.00065181543292      0.00005522574922
  O          -2.68286540326896      1.08359541382077      0.00006521729722
  O          -2.68284508480435     -1.08495147351168     -0.00005301905359
  O           3.46141132839170      0.05737863227539     -0.00001619996636
  H          -0.51264795133527     -2.15415573052710     -0.00010935609943
  H           1.96924180749236     -2.15270314013971     -0.00014773668530
  H           1.97267989071595      2.14986573256773      0.00016500400672
  H          -0.51224811326415      2.15340699626472      0.00020261589600
  H           3.82945629899964     -0.83948727619675     -0.00009043143818
