23
Coordinates from ORCA-job geoopt E -276.290080815621
  C          -3.81817914860244      0.36072495245974      0.00027285800722
  C          -2.55210667761547     -0.49195236473448     -0.00071159897367
  C          -1.27539392091213      0.34749532122515      0.00031549900791
  C           0.00000267779294     -0.49324149531131      0.00000313967998
  C           1.27540262970490      0.34749137681377     -0.00009038282767
  C           2.55211735693184     -0.49195436472986      0.00048446811245
  C           3.81817914545421      0.36074009776477     -0.00044128657330
  H          -3.85580883939041      1.00827740200882     -0.88379404935929
  H          -3.85609998345713      1.00583825420111      0.88610591521730
  H          -4.72165710600357     -0.25885952609722     -0.00072976902918
  H          -2.55091212800031     -1.14952653789407     -0.88116568425178
  H          -2.55097946055240     -1.15167996503643      0.87813371369078
  H          -1.27631996463550      1.00789237041261     -0.87949324578303
  H          -1.27678584865980      1.00648569997667      0.88117523505228
  H           0.00013179521828     -1.15276985168355      0.88032931642491
  H          -0.00011151821643     -1.15250217017837     -0.88052519271087
  H           1.27641527641685      1.00755027451104      0.87997184498930
  H           1.27671389897969      1.00683464294990     -0.88068686114697
  H           2.55107256148879     -1.14981686235396      0.88072221491346
  H           2.55085116273420     -1.15136588991851     -0.87859806562473
  H           3.85598674397459      1.00604036442959     -0.88614321191516
  H           3.85589032921495      1.00811690823366      0.88375109089452
  H           4.72166896803437     -0.25882680184906      0.00032729450552
