27
Coordinates from ORCA-job geoopt E -353.661963647447
  C          -4.98930706687242     -0.05567012060557     -0.30688535823350
  C          -3.69538373721099     -0.11990824339901      0.50025760391993
  C          -2.44750028457310     -0.05358423259198     -0.37888278315137
  C          -1.14527902758850     -0.11620700969275      0.41726648348669
  C           0.10077054587807     -0.05496035491551     -0.46427904093509
  C           1.40099506882853     -0.11716108482034      0.33433533580603
  C           2.64759061063759     -0.05868865738566     -0.55973080610944
  C           3.91626967834297     -0.17266727107877      0.22555306937510
  C           4.87529779476039      0.75095461459417      0.27139006943397
  H          -5.04904417671144      0.87734419167282     -0.87976670366007
  H          -5.87121320098867     -0.10666549456823      0.34102370557751
  H          -5.04941592674804     -0.88710415356708     -1.01920243869574
  H          -3.67123651447129      0.70627810054256      1.22440977544055
  H          -3.67347160269381     -1.04785631872642      1.08843103989002
  H          -2.47125456517194     -0.88104716370495     -1.10334593579801
  H          -2.46936199974419      0.87465030880652     -0.96875579537362
  H          -1.12565012044068     -1.04310781760879      1.00902842021657
  H          -1.12077267395539      0.71320902961823      1.13917361455302
  H           0.07886653714037     -0.88561240388061     -1.18472581075504
  H           0.08255369315849      0.87122684266922     -1.05697819149379
  H           1.42376087847916     -1.04305720064067      0.92644879748579
  H           1.43352994914235      0.71475942206090      1.05165357611211
  H           2.64935227546828      0.87426318999942     -1.13827277260364
  H           2.59418160467012     -0.88834502652828     -1.28068246049109
  H           4.03279733339479     -1.08823712841620      0.80979720015074
  H           5.77066435748589      0.60979689057096      0.87177979283125
  H           4.79484584638347      1.67865603799602     -0.29332267957888
