21
Coordinates from ORCA-job geoopt E -350.090081150347
  C           3.79299378790013      0.01677210268533      0.10789363792289
  C           2.31468448192594      0.11123787244561      0.47022288699973
  C           1.40222511645732     -0.18155274837883     -0.73063596116000
  C          -0.05562855766388     -0.08881556356328     -0.36816323335065
  C          -0.73831977194971     -1.20056730183800      0.13679146260314
  C          -2.07326291971937     -1.10476318136733      0.52269721629729
  C          -2.74931132486518      0.10878586214199      0.41011321263394
  C          -2.07973183987626      1.22371895249816     -0.09050418176940
  C          -0.74453803115239      1.12383626026495     -0.47520091105093
  H           4.04429085409050     -0.98587278548668     -0.25736180553609
  H           4.05076345185515      0.73371874841898     -0.68038603954087
  H           4.42912256210981      0.22754197195238      0.97419510579022
  H           2.08541723648176      1.11383728306081      0.85544355258968
  H           2.07953513727415     -0.59617995810543      1.27670438825338
  H           1.62614505611237     -1.18663309565627     -1.11055237252528
  H           1.63044608175499      0.53100513754385     -1.53351593059615
  H          -0.21672938017789     -2.15160557426979      0.22382862992893
  H          -2.58852692490264     -1.98080402639347      0.90786040376603
  H          -3.79169188588025      0.18415529590180      0.70714334901925
  H          -2.59973113977425      2.17337430094197     -0.18544941906236
  H          -0.22772697780032      1.99730883220326     -0.86769016991275
