14
Coordinates from ORCA-job geoopt E -617.981195758227
  C           2.20282641068333      0.49353333377329      0.12213824406127
  C           1.22934301268746     -0.58605885795315     -0.33357994434553
  C          -0.11042303660539     -0.57742288058018      0.37601156902020
  H           0.02720758595497     -0.54848334850704      1.46130625446987
  C          -1.01790453578500     -1.71605687392755     -0.02949626827065
  Cl         -0.99657008941032      1.03163874491790      0.01325625878729
  H           2.35530922815504      0.45071699833072      1.20666423311008
  H           1.83916179813246      1.49429590209434     -0.13040050862140
  H           3.17646673169242      0.35931502782569     -0.35969861404164
  H           1.66112541901240     -1.57645051226155     -0.12987780213631
  H           1.06494266831973     -0.53284386590266     -1.41724754907006
  H          -0.53089896355782     -2.66066589129901      0.24082738610538
  H          -1.98017175871082     -1.66880887271371      0.48680563090459
  H          -1.19204096496845     -1.71609303949709     -1.11020228527308
