25
Coordinates from ORCA-job geoopt E -426.721773149815
  C           4.07211951731962      0.86039851235896      0.22960332349909
  C           2.67042657555089      0.47294110640223     -0.23247358611497
  C           2.26837328389494     -0.92175810407213      0.24715203511204
  C           0.90469123971433     -1.36379254835279     -0.24272165288392
  O          -0.09381017944683     -0.49475899760616      0.30903475977795
  C          -1.40418094868607     -0.79307080276935     -0.17243365711100
  C          -2.34674502653034      0.27607029666199      0.34356738781924
  H          -2.31139450182555      0.27353582194929      1.44513399171690
  C          -3.76549609865847      0.03514329017629     -0.12591077971192
  O          -1.93940727779564      1.57497007428545     -0.13631867238848
  H           4.34753326667734      1.86057873081432     -0.12175349761292
  H           4.13857576740763      0.86057503175859      1.32398539708534
  H           4.82049572991872      0.15406774401802     -0.14879000463616
  H           1.94654848618653      1.21225186598042      0.13307374280343
  H           2.61912533021523      0.50129533029463     -1.32975362006444
  H           3.00149835587679     -1.65775117041283     -0.10989751553739
  H           2.29043079665172     -0.96302582305494      1.34514187102841
  H           0.85742655665181     -1.32072535159303     -1.34365122847281
  H           0.69636134996724     -2.40134146544535      0.06438466272981
  H          -1.72970897945949     -1.78412285490611      0.18364976064071
  H          -1.41078705793954     -0.79803732898995     -1.27525528202391
  H          -4.42734155096356      0.82633337286857      0.23888746645926
  H          -3.81339134139285      0.01662770462728     -1.22041510723804
  H          -4.13424018547744     -0.92191870491842      0.25535997390889
  H          -1.00635673145699      1.67892000302505      0.09775370711489
