18
Coordinates from ORCA-job geoopt E -402.048405082562
  C          -2.76899162800867     -0.78005201412218      0.00744623148589
  O          -1.79752258392581      0.27371406425615      0.02738132195799
  C          -0.47115617975307     -0.09121661727846      0.01725240250312
  C          -0.01158449923830     -1.40329573148619      0.01150685502764
  C           1.36290862110021     -1.66410593080494      0.00169300301610
  C           2.26638287922357     -0.60866746196551     -0.00596817321999
  C           1.80412490016928      0.70716891117872     -0.00397034276557
  C           0.43726207074541      0.99151307729815      0.01088509063833
  N          -0.03989989600457      2.29849048030131      0.08301375458615
  H          -2.67967465594749     -1.41613979632495      0.89633838865435
  H          -2.66981395777514     -1.39103631054097     -0.89792182221943
  H          -3.74207140428240     -0.28620628728295      0.00939268829948
  H          -0.71264873753048     -2.23058573911988      0.01338557316550
  H           1.71115517767124     -2.69257031662977     -0.00232140482389
  H           3.33563126723499     -0.79985881985602     -0.01809413679240
  H           2.50798311157270      1.53665230412398     -0.01308805360232
  H          -0.96419623995413      2.42268195032049     -0.30752404113691
  H           0.61267141230266      2.98510812983302     -0.27082242317404
