23
Coordinates from ORCA-job geoopt E -1568.879640452722
  C          -2.17559720078065     -2.74959477493546      0.83361471852957
  O          -1.90581049681149     -2.10161370250651     -0.43771885379382
  C          -0.99086042949351     -1.08872841756374     -0.34468874737897
  C           0.37577033006162     -1.39133194665787     -0.40445479866511
  C           1.33263366797215     -0.36880101094905     -0.34038357104944
  C           0.92284866955345      0.95535096315054     -0.24753270879309
  C          -0.44509556566460      1.30596956007576     -0.19807129582114
  C          -1.37479934833580      0.24132529403832     -0.24159167599057
  Cl         -3.09676830646189      0.53880908064948     -0.13881378999430
  C          -0.94005411414352      2.68813141041728     -0.14158034945373
  O          -0.27606698263724      3.68301241934483      0.11925111075474
  Cl          2.18586125914180      2.15492516282190     -0.26784975125845
  O           2.64989946681925     -0.73822805162708     -0.44309680157398
  C           3.31184377796294     -0.88205172312416      0.84648761521663
  O           0.73758613817180     -2.67945637855211     -0.53694669622183
  H          -2.89677734784507     -3.54020751663007      0.62110066496708
  H          -2.60502064591366     -2.03198744788175      1.54122356545919
  H          -1.25876914839463     -3.18164091592108      1.24813202669079
  H          -2.01480315536599      2.79723526512369     -0.36299771665559
  H           2.81063399180870     -1.65192071900818      1.44296413430021
  H           3.31237856955635      0.07005612726492      1.38557962350908
  H           4.33538660618466     -1.18630232833554      0.62365843401361
  H           1.70608883811533     -2.72081921049412     -0.62403746529088
