12
Coordinates from ORCA-job geoopt E -211.322988781210
  C           1.71099233198676     -0.58720856748882      0.64124153411194
  C           1.20817240599057      0.05765993019950     -0.64368391836504
  C          -0.04735626550875      0.92187802948287     -0.42519187388352
  C          -1.16883397114536      0.14202887736485      0.06101041802796
  N          -2.05372163589501     -0.50290426424479      0.44074613703100
  H           0.96571264824851     -1.27287218638864      1.06097706166023
  H           2.62338092712338     -1.16200275282535      0.45433430981868
  H           1.93732185189502      0.17143266054670      1.39891216045180
  H           1.97605264757275      0.71504300684541     -1.06492098203285
  H           0.98770356274069     -0.70754804256379     -1.39620496150832
  H          -0.35795456187256      1.40659503643655     -1.35787216463892
  H           0.15263000816399      1.71334373263551      0.30758358962706
