11
Coordinates from ORCA-job geoopt E -1038.261726445614
  C           0.97783826228049     -2.10337517915126      0.38317464763608
  C           0.34892645076761     -0.85512551491308     -0.20194024906723
  H           0.11388932016796     -0.98719564909205     -1.26101688749419
  C          -0.87932619161809     -0.46269471669166      0.58043312767658
  Cl         -1.78210948089063      0.93297492026902     -0.17482409747888
  Cl          1.58205592145068      0.52292501558127     -0.16329755867598
  H           1.88084471085671     -2.37445694879470     -0.16884710277748
  H           1.23192172033755     -1.96288797510706      1.43811657848417
  H           0.26351651812599     -2.93032526978996      0.30116738822352
  H          -1.57388036405013     -1.30747406856675      0.59034413576151
  H          -0.63685160982813     -0.17098533754376      1.60463314871189
