25
Coordinates from ORCA-job geoopt E -464.577040524438
  C           3.05207798351183     -0.71370671260071      1.17246541893184
  C           2.60481813003076      0.01014168101016     -0.06576782707358
  C           3.48132363796067      0.51332331956872     -0.94057255128092
  C           1.11644768674399      0.15129710280051     -0.29438304931470
  H           0.96775112745104      0.52234138120145     -1.31853625689690
  C           0.35380806920522     -1.17524375679789     -0.16011345734637
  C          -1.10356971416610     -1.00306915604101     -0.58808380266383
  C          -1.72121113359432      0.21185678631759      0.04608029405207
  C          -0.98785503946994      1.18478639033245      0.62642067395010
  C           0.49797861193694      1.18814120924429      0.66108656458033
  C          -3.16383396237045      0.37443963145794      0.04763553802499
  O          -3.95312538123790     -0.41838669278016     -0.47007838852178
  H           2.77402439195355     -1.77387045101390      1.12574161807942
  H           4.13680566040705     -0.65159895816487      1.29480733311241
  H           2.57754252709215     -0.30644204020801      2.07346607699500
  H           3.14843869634270      1.02264748601657     -1.84256239873114
  H           4.55389461864616      0.43117114377838     -0.77883212050180
  H           0.83337710698592     -1.95152330873629     -0.76741250441464
  H           0.38752603802248     -1.50959982402316      0.88524933505030
  H          -1.17468216329196     -0.91626112606860     -1.68167424400490
  H          -1.69174548784821     -1.88824607680016     -0.31672829166923
  H          -1.50427671157921      2.02458276760426      1.09269796313343
  H           0.86353160251398      2.19656410300717      0.42451289726502
  H           0.81578957105733      1.00191062700589      1.69951825899740
  H          -3.54185988770369      1.28647107668938      0.55269692594748
