15
Coordinates from ORCA-job geoopt E -569.241055587299
  C          -2.93340022899562      0.01732480895667      0.00001440621056
  C          -2.21949100748413      1.21509027604749      0.00001092549431
  C          -0.83072721161630      1.19731467763754     -0.00000429692446
  C          -0.16020958185054     -0.02752558155010     -0.00001544482176
  C          -0.86547420746292     -1.22813571100219     -0.00000717788198
  C          -2.25772617769550     -1.19922616846746      0.00000540755351
  C           1.33744389173472     -0.01261405173519     -0.00000027203269
  F           1.83973477360505      0.63554647829398      1.08655092365590
  F           1.88010729466736     -1.24980535847885     -0.00024656477321
  F           1.83975526231846      0.63599434046568     -1.08626897944414
  H          -4.01940879500343      0.03424919861353      0.00002313337996
  H          -2.74605322400413      2.16461723522996      0.00001776580295
  H          -0.26949490680701      2.12770696183833     -0.00000578762832
  H          -0.33949020255627     -2.17678309586252     -0.00001578209523
  H          -2.81332149274973     -2.13209515278687      0.00000675920460
