21
Coordinates from ORCA-job geoopt E -312.221560139541
  C          -3.01791296893638     -0.25898771055266     -0.11146585927350
  C          -1.65340235298910      0.41001273152928      0.03969014730955
  C          -0.51348008744578     -0.56016642564849     -0.27099088424674
  C           0.90849476533609     -0.03269026091613     -0.02352128319672
  C           1.18792540130598      1.25365390154452     -0.79684023280667
  C           1.92516421830984     -1.10702329644897     -0.38458135773416
  O           1.10502443997159      0.21220951931097      1.39872301996836
  H          -3.11884308969994     -1.10610393333720      0.57704046163682
  H          -3.15693300839176     -0.64019179137877     -1.13009191632110
  H          -3.83299543418639      0.44217290206077      0.09765187601113
  H          -1.59933777084872      1.27782207940498     -0.62913102125376
  H          -1.55424736341446      0.79545878873815      1.06423294165456
  H          -0.63978463613030     -1.47025468760093      0.33259944157246
  H          -0.58351045792925     -0.86822221991859     -1.32346153917280
  H           2.23397361344725      1.55261338791215     -0.67043947907262
  H           0.55287692455555      2.07341344618197     -0.44369527017901
  H           0.99497901898353      1.11084411522910     -1.86577821000204
  H           1.73669793197740     -2.02441037469886      0.18386703366227
  H           2.94201631559902     -0.76320562128260     -0.16674012953643
  H           1.86295616027361     -1.34377400397434     -1.45108739971597
  H           0.53557438891223      0.95138784484565      1.65046262569636
