12
Coordinates from ORCA-job geoopt E -248.460148935832
  C          -1.65616496172591     -0.77006394253216     -0.00007384840716
  N          -0.40746307349526     -0.01704899682425     -0.00070093387099
  C          -0.52479406406044      1.43620771848610     -0.00121733600011
  C           0.77891962329506     -0.63906392314103      0.00117529597370
  O           1.89059384119974     -0.08181080481311      0.00260291776335
  H          -2.24801443362800     -0.52246526128727      0.88882564613617
  H          -1.44436587534221     -1.84177946574893      0.00262527202361
  H          -2.24682685978204     -0.52648719228030     -0.89085583928830
  H          -1.06654476483264      1.76935830077441      0.89160022466513
  H          -1.07898258520740      1.76683569270474     -0.88723958598310
  H           0.46783553093230      1.88785525360363     -0.00881675202212
  H           0.68878491524680     -1.73868164514184      0.00143074800980
