27
Coordinates from ORCA-job geoopt E -428.690415505540
  C          -5.18946018315663     -0.09919653820910      0.19818079380827
  C          -3.75841758116114     -0.57517577784656      0.43343704482584
  C          -2.71773440457529      0.38073022590171     -0.14749227927528
  C          -1.28292435007766     -0.08604043646748      0.08364888233869
  C          -0.24362701419994      0.87997082562993     -0.50480144651557
  C           1.16454486202613      0.40479201675980     -0.26646208030157
  C           1.79439420196871     -0.45057553197636     -1.17660997156502
  C           3.07752339396536     -0.93451639091957     -0.93209729488417
  C           3.75342555859485     -0.57029663092735      0.23101213708875
  C           3.13588231204800      0.28051529382504      1.14589145823523
  C           1.85258471949554      0.76225334947016      0.89777956322624
  H          -5.35776467619074      0.88156395072351      0.65858127745728
  H          -5.40050181556957     -0.00393505716631     -0.87354035088132
  H          -5.92014658763674     -0.79691458714599      0.62167708747534
  H          -3.58042084444113     -0.69062395127198      1.51153658822977
  H          -3.62276248220003     -1.57048330458472     -0.01183387027360
  H          -2.85175548440783      1.37767765403551      0.29739424167855
  H          -2.89307061299853      0.49613517115479     -1.22718478703925
  H          -1.09834762823560     -0.19646012959260      1.16169197055210
  H          -1.14022059272133     -1.08024503755377     -0.36315833348658
  H          -0.38066603329637      1.87072585484615     -0.05320216906772
  H          -0.42164458715795      0.98260223613379     -1.58281839865765
  H           1.27262226951128     -0.73650210783641     -2.08773310756159
  H           3.55265197839222     -1.59425737719262     -1.65340399067886
  H           4.75572208006876     -0.94401707139281      0.42132961150991
  H           3.65683762604309      0.57359990905805      2.05366096624246
  H           1.37654866691253      1.42834338014521      1.61457893471974
