20
Coordinates from ORCA-job geoopt E -424.120883003043
  C          -3.65943242918830     -0.04149284129707      0.01035786700064
  C          -2.16069822808750     -0.02403451335909     -0.00765674395502
  C          -1.46256956329370      1.19167284313192      0.03410574207587
  C          -0.07891227549670      1.21807153487138      0.04238048598466
  C           0.65872603311112      0.02447698800951      0.00717672824071
  C          -0.03491626472896     -1.19203801934914     -0.03740600898845
  C          -1.42382684982968     -1.21150759208547     -0.04581053025922
  C           2.14101525770614      0.08029763700997      0.01484144802653
  O           2.72881428061770      1.16529643377005      0.04412111473201
  C           2.91902383285877     -1.20412239069006     -0.01213525149630
  H          -4.05162989928746     -1.01254162679201     -0.30281319848695
  H          -4.03114872839206      0.16012236256100      1.02286097189136
  H          -4.07064534771303      0.73539948698200     -0.64200769721421
  H          -2.02018064358500      2.12493536228115      0.05926390544171
  H           0.44676513540622      2.16746772684309      0.07390345387728
  H           0.50476529325213     -2.13311953630915     -0.06902047805139
  H          -1.94716385001315     -2.16348442457348     -0.08377275555632
  H           2.65856273020188     -1.82915062532759      0.84940805302719
  H           3.98783317374031     -0.98580728714421      0.00404784342093
  H           2.67616977772126     -1.78058306283279     -0.91190716901103
