15
Coordinates from ORCA-job geoopt E -196.462869464275
  C           1.19808675978721     -1.26125326238668      0.03533312922394
  C           0.39863963320847     -0.00086253315631     -0.31884946989161
  C           1.20243825803039      1.25736984492708      0.03297041187469
  C          -0.91485379784626      0.00197470366395      0.40815295216225
  C          -2.11499349477947      0.00258841674444     -0.16879396391287
  H           1.40044292706880     -1.29863055210914      1.11281119625899
  H           2.16034541530310     -1.26766113215879     -0.48900225334438
  H           0.65154443058975     -2.16976520094161     -0.23931797939144
  H           0.19695863783550     -0.00159166395071     -1.39918853292565
  H           1.40522765232904      1.29587850668653      1.11032431841071
  H           2.16456570446701      1.25961286807808     -0.49164697689952
  H           0.65898628251892      2.16729954805715     -0.24314087500694
  H          -0.84395642423823      0.00349734256643      1.49927625199712
  H          -3.02860590681489      0.00455092445318      0.42067952893325
  H          -2.22109482605934      0.00115343872638     -1.25269693408855
