31
Coordinates from ORCA-job geoopt E -767.483847823820
  C          -3.61028459992638      0.01952925086341      1.90090645670210
  C          -3.06832810875700      0.50048945640660      0.55609574108135
  H          -3.18122189638858      1.58901736204705      0.47825114499366
  C          -1.59510838162519      0.17419237489753      0.37920519597789
  C          -1.17873343246834     -1.17838270771105      0.30832732701831
  C           0.14904727758115     -1.50370546898662      0.17209104575865
  C           1.14121331080968     -0.49408922370615      0.10330980498404
  C           2.51716095370162     -0.80883567257820     -0.02937082737795
  C           3.44594650490625      0.20801051914196     -0.09154177900862
  C           3.04073861780412      1.56540829526287     -0.02601539290783
  C           1.71547554886392      1.88394529768115      0.10179905375194
  C           0.72496027014765      0.87093052780010      0.17122627467421
  C          -0.65026783890323      1.17343877946043      0.30457458512940
  O           4.79685449805064      0.02512350262866     -0.21735002425502
  C           5.27165353153975     -1.32813990242705     -0.28250727690308
  C          -3.85207814199380     -0.09269021496013     -0.59706110756240
  O          -4.64876575840941     -1.00980309759750     -0.51332324949864
  O          -3.55967781039892      0.51065870924175     -1.76946112084267
  H          -3.50365884341292     -1.06412813579672      2.00610984448486
  H          -3.05429467026158      0.50107345929287      2.71032213054563
  H          -4.66942291264285      0.27373561314791      2.00641523647445
  H          -1.92349129918536     -1.96978146912311      0.36040656255613
  H           0.45484973385671     -2.54556183811178      0.11587683382075
  H           2.80678055602424     -1.85293733644110     -0.07836565069283
  H           3.80186433603535      2.33866827728214     -0.07890108300484
  H           1.40832418075899      2.92557858395100      0.15225936790848
  H          -0.95436457894640      2.21722763281380      0.35232824361868
  H           6.35624663958601     -1.25724855375858     -0.37633939831737
  H           4.85982047694077     -1.84685279846931     -1.15628661175525
  H           5.01637313383511     -1.87742692594245      0.63149943498938
  H          -4.07553743662202      0.08029678279052     -2.47373691184340
