25
Coordinates from ORCA-job geoopt E -331.634989622325
  C           4.48950382596753      0.27383726117444      0.00012844229801
  C           3.19417247243675     -0.53367218713983     -0.00043883154849
  C           1.94753025941691      0.34970826443087      0.00010842157792
  C           0.64423496802990     -0.44712080070704     -0.00003336750090
  C          -0.60188178475430      0.43685448177703     -0.00002244145625
  C          -1.90489134423678     -0.36158675392082      0.00029186950095
  C          -3.14448218696742      0.52869511313226     -0.00015426267765
  N          -4.43229399014973     -0.19053965336151      0.00025994997438
  H           4.55053266969040      0.91901940865285     -0.88437124765137
  H           4.55058025945870      0.91771618627536      0.88557244445348
  H           5.37029643311497     -0.37761045332443     -0.00037463128198
  H           3.17015785080530     -1.19130138296330     -0.88052688226286
  H           3.17012229839360     -1.19248888560272      0.87876156619247
  H           1.97120726790897      1.00922783131091     -0.88004038311747
  H           1.97145319380334      1.00850198618339      0.88079254155456
  H           0.62156253772355     -1.10585097673231     -0.88055696846730
  H           0.62148777206783     -1.10604044395488      0.88034503297174
  H          -0.57936457570586      1.09575141625567      0.88042084529877
  H          -0.57957589720368      1.09543531555120     -0.88070659950386
  H          -1.93521129408202     -1.01792445960325     -0.88224042883238
  H          -1.93526416007145     -1.01715891268040      0.88338676058004
  H          -3.11897439128162      1.18687851993127      0.87821803617819
  H          -3.11900039611962      1.18593275892854     -0.87923394740307
  H          -4.43965281535326     -0.81302453996683      0.80507573843241
  H          -4.43959989169201     -0.81404566164649     -0.80376636870933
