14
Coordinates from ORCA-job geoopt E -307.636134471103
  C          -2.43793137047577     -0.71046329099581      0.05873251127330
  C          -1.76318401966114      0.65613775384937     -0.01612915201159
  C          -0.30620349081524      0.62919319483717      0.38194124408284
  O           0.40689051316009     -0.20627022675185     -0.59296807013140
  C           1.71021283954611     -0.37960818245483     -0.38955287395148
  O           2.35283502363399      0.09088176835962      0.52980355252430
  H          -1.98866847291055     -1.41862201992738     -0.64496861805662
  H          -2.35100378865547     -1.13364894295086      1.06604949309404
  H          -3.50245114321290     -0.63151460792319     -0.18324727562212
  H          -2.25955846133342      1.35792074297525      0.66566534977948
  H          -1.85513405177464      1.07846980527018     -1.02454130477151
  H           0.14332702860821      1.62725847060985      0.36368225352890
  H          -0.16354777122474      0.18808487480373      1.37487719603873
  H           2.13428754051547     -1.01680529820125     -1.17969047677686
