23
Coordinates from ORCA-job geoopt E -1085.422860548289
  C           4.48793895577605      0.30807288877131     -0.02447154888805
  C           3.66875342630891      1.07587017445970      0.80143702314666
  C           2.29807408217655      0.84358424840226      0.84196605066505
  C           1.75829285545409     -0.15962900102339      0.04283907638305
  C           2.56274113101453     -0.93267883443768     -0.78736795606221
  C           3.93420753391842     -0.69632803998876     -0.81423722348825
  N           0.34545965606941     -0.42693761825805      0.09245541799112
  C          -0.56690201106146      0.58500965162651     -0.27343709270888
  O          -0.15804333182470      1.69646142899557     -0.64869687626811
  C          -1.93296993601779      0.18811085219477     -0.17927603149166
  C          -2.31137089779637     -1.08826780497380      0.19655748880413
  C          -1.24343988347765     -1.99532527907853      0.49189807167602
  N           0.01577435516027     -1.67875707703751      0.44091923652878
  N          -3.58301057011219     -1.50982299376837      0.31638273893249
  Cl         -3.14271100501795      1.37003861031029     -0.59469251299543
  H           5.55797706770435      0.49194434039303     -0.05053538778704
  H           4.09808551913723      1.85456656282098      1.42483147923802
  H           1.65312102668401      1.42787874657991      1.49063519014187
  H           2.11931487089635     -1.70753486387672     -1.40521669058961
  H           4.56840092606630     -1.29670970652022     -1.45967544241124
  H          -1.46958037077633     -3.01766019329869      0.78421750981782
  H          -3.76173123907931     -2.49021116135907      0.47167942229937
  H          -4.34680909280274     -0.93577926733353     -0.00612921513391
