26
Coordinates from ORCA-job geoopt E -315.589617023918
  C          -2.55092470694878     -0.65254588184595      0.06359790368041
  C          -1.31317539129975      0.19406019162023     -0.25524718627718
  C          -1.55022395223264      1.62893977672205      0.22497371783164
  C          -0.03253490029606     -0.43146704561031      0.34790831033501
  C           0.19786660576697     -1.84459172191372     -0.20180917570563
  C           1.21843378363118      0.46815097327061      0.19018712989718
  C           2.42854810622246     -0.08891022578543      0.94683967831210
  C           1.58834460077691      0.73987012748195     -1.26938219930742
  H          -2.66584717531178     -0.77517685262090      1.14882986439604
  H          -3.45695818071431     -0.16547207103474     -0.31441373050093
  H          -2.50383632172524     -1.64888074292380     -0.38535704882636
  H          -1.19607140736967      0.21370849124605     -1.34985280919220
  H          -0.78066623662348      2.32363363801423     -0.12490917927649
  H          -1.57212768312807      1.67317107857307      1.32196985540936
  H          -2.51493102575159      1.99832029799612     -0.14130458627247
  H          -0.20865279226621     -0.51816645043733      1.43374940450181
  H           0.20665436160245     -1.84762106307333     -1.29868010610238
  H          -0.58762835072775     -2.53269284155505      0.12308737418281
  H           1.14881912917052     -2.26264097397549      0.14207574308943
  H           0.97746559339531      1.43108189696768      0.65943793555633
  H           3.22629844979471      0.66132383312209      0.99446322976324
  H           2.16472573673859     -0.36422126440724      1.97520009152929
  H           2.84663879552113     -0.97544620184598      0.45684802487599
  H           0.77088550641747      1.21524890377394     -1.82212477031373
  H           1.85232338502458     -0.18807282847357     -1.79074901179254
  H           2.45720473593306      1.40608802971480     -1.32554221209332
