23
Coordinates from ORCA-job geoopt E -425.550191402049
  C           4.71684936320152     -0.43200728388088      0.17712114641363
  C           3.47231734030930      0.31679233244648     -0.29106193064883
  C           2.17969891048969     -0.33979024353434      0.19081206291351
  C           0.93101836021252      0.40670014194452     -0.27821816124284
  C          -0.32541182863169     -0.27175788997979      0.21841468712566
  O          -1.46596547770817      0.49837751575008     -0.27497641500916
  C          -2.68577051187552      0.04902123120893      0.06331786064414
  O          -2.86365504007525     -0.94706026835857      0.74889452108740
  C          -3.78660033569895      0.89545679063251     -0.49117123007078
  H           4.76233953304832     -0.47272907033364      1.27181147141084
  H           4.71783057581573     -1.46340694890195     -0.19474909369012
  H           5.63312302931229      0.05201471637361     -0.17783067926606
  H           3.46305284787217      0.36914199563106     -1.38831946557138
  H           3.50670556755193      1.35372604890284      0.06996586155234
  H           2.14341105938924     -1.37744112848596     -0.17037367077937
  H           2.18589127513733     -0.39024294646158      1.28896477785658
  H           0.91240791363876      0.44779401991662     -1.37505799532955
  H           0.95535755747736      1.44072849390933      0.08957582476848
  H          -0.36929197161699     -0.29365164915905      1.31310624401628
  H          -0.40993157848947     -1.29673859769485     -0.15987727807059
  H          -4.41226788421735      1.24247582776359      0.33681068128919
  H          -4.41270966296155      0.27212162609311     -1.13731591402060
  H          -3.40977507358126      1.74909102591792     -1.05509608247876
