19
Coordinates from ORCA-job geoopt E -311.019214906223
  C          -1.77045620976080      0.98425124398999      0.37991265937993
  C          -0.88647480128613     -0.08339412372568     -0.20088466426065
  O          -1.38102784047227     -1.02506501159887     -0.81460199995409
  C           0.62403993243806      0.03191722656534     -0.00593496494078
  C           1.31270057979013     -1.28519315772121     -0.36461474421804
  C           0.94514548646604      0.41269324866952      1.44772967578504
  C           1.11862743661481      1.14429360747661     -0.95403892944484
  H          -1.94789455128296      0.73716524936338      1.43505732333494
  H          -1.30966573834972      1.97456547174554      0.35578673275739
  H          -2.73250884676630      0.99557259894306     -0.13671545787070
  H           1.13489849993428     -1.55999166208458     -1.40858225439787
  H           2.39295440885504     -1.18267060449436     -0.21727939599228
  H           0.95658243086341     -2.10429131029417      0.26949095981835
  H           2.03226321477178      0.46286274271699      1.57272902672248
  H           0.55659431250084     -0.33602746286311      2.14715948845562
  H           0.53125783831759      1.38843608264534      1.71837270931605
  H           0.87885539396159      0.90808479984215     -1.99668361630081
  H           2.20738388185396      1.22755769573254     -0.86360871495861
  H           0.68231642405064      2.11685215959154     -0.70689716473113
