26
Coordinates from ORCA-job geoopt E -464.851015343400
  C          -5.11982761691956     -0.80587674821142      0.10555434303701
  C          -3.91077130418412      0.07303959531254     -0.20267432566207
  C          -2.58801159836325     -0.60152079591436      0.15619999863670
  C          -1.37435889487398      0.27331641989767     -0.15024344726121
  C          -0.06872536686052     -0.41978440660147      0.21653202933903
  C           1.15446403990046      0.40545151259665     -0.06590934745111
  O           1.15565819831879      1.52520707418460     -0.55290065655990
  O           2.27991741470825     -0.24239884361796      0.28542890031812
  C           3.54091259150234      0.46234041665137      0.05702200675726
  C           4.65048517582483     -0.44777328293793      0.51807827720371
  H          -5.16255169647805     -1.05487472681742      1.17250123369919
  H          -6.05796544003953     -0.30581792672554     -0.15857684231530
  H          -5.07371125468309     -1.74765844339231     -0.45397625091826
  H          -3.99349753008061      1.02084568253749      0.34691347251170
  H          -3.90550583650521      0.33267209676211     -1.27028649342698
  H          -2.59075554346207     -0.86095862941110      1.22487611543329
  H          -2.50285780787238     -1.55005373260128     -0.39371392627347
  H          -1.36517693969042      0.52972036754884     -1.21743169843716
  H          -1.45363339402604      1.21907874138746      0.40118063784060
  H          -0.04899390000175     -0.68537032327214      1.28204459750688
  H           0.04046618389819     -1.36743486579348     -0.32813602164985
  H           3.61877845785983      0.69408161646396     -1.01028674485964
  H           3.51932843625710      1.40008453170303      0.62195476067479
  H           4.55487147506738     -0.67859560737893      1.58353349922748
  H           4.65506463737764     -1.38353715744767     -0.04935435309545
  H           5.61081835262580      0.05318689287729      0.36073409732465
