23
Coordinates from ORCA-job geoopt E -538.395704583062
  C          -3.67491043146739      0.73215311088999     -0.16309351641300
  C          -3.50399438396359     -0.41221188835460      0.61262473508503
  C          -2.26252685446564     -1.03877481707492      0.68203135540309
  C          -1.19708440089523     -0.51126555031408     -0.03928982878130
  C          -1.35017941760159      0.62619554118027     -0.82858204904303
  C          -2.59549289731415      1.24522888665792     -0.88077923212318
  O          -0.00027985689549     -1.22018345414588      0.00118542709188
  C           1.19692187024423     -0.51174472303402      0.04014885661840
  C           2.26075211528918     -1.03831643048609     -0.68415859777157
  C           3.50250474175640     -0.41210827563680     -0.61620569216704
  C           3.67516714792629      0.73094321047100      0.16103677983074
  C           2.59730758393621      1.24307405971701      0.88176507149770
  C           1.35179191329037      0.62436073981872      0.83102451558857
  H          -4.64344843517649      1.22060440180137     -0.21089713259500
  H          -4.33895556100880     -0.82060683212993      1.17491462149755
  H          -2.11296565793001     -1.92922749875913      1.28531322235620
  H          -0.51093246862655      1.01850050022443     -1.39503285965166
  H          -2.72188009648490      2.13150154176780     -1.49622367629502
  H           2.10978110156750     -1.92773804477221     -1.28860734889800
  H           4.33627315737896     -0.81973795876975     -1.18081432760439
  H           4.64389896431953      1.21912267592392      0.20770467253552
  H           2.72514104770153      2.12830485446086      1.49840671391831
  H           0.51366434141961      1.01583561986413      1.39971840502020
