28
Coordinates from ORCA-job geoopt E -428.918519740227
  C          -5.09024018736174     -0.02460585567152     -0.25609729070007
  C          -3.81517754540543      0.32137159341805      0.50755168644041
  C          -2.55292268039125     -0.08051798041505     -0.25382205901446
  C          -1.28446418391379      0.26136206715567      0.51519471385045
  C           0.00234633409551     -0.09651900103668     -0.18140044656110
  O           0.01503089441099     -0.74842182640528     -1.22195974989675
  C           1.27305784824061      0.38967365315510      0.46571330123309
  C           2.55724314340270     -0.16327353584592     -0.13678320298028
  C           3.80245821234140      0.36461378079047      0.57416414619710
  C           5.09240375503367     -0.18820611357685     -0.02506041287282
  H          -5.98474179115692      0.26973649743527      0.30336126549732
  H          -5.15383340904193     -1.10248847078446     -0.44620271760661
  H          -5.11849610645461      0.48646729431975     -1.22566042781828
  H          -3.82245983861823     -0.17907499498179      1.48563707027549
  H          -3.78741126532134      1.40059728184625      0.71127412579485
  H          -2.57819159515806     -1.15823578761041     -0.46056009429127
  H          -2.53698543514334      0.42399099856719     -1.22929274812072
  H          -1.26686215839241     -0.25644566426014      1.48676480711794
  H          -1.24454502694844      1.33147975592840      0.76482255193124
  H           1.20975474128747      0.17030419214613      1.54110901973336
  H           1.25370452527719      1.48871324559302      0.39912816295859
  H           2.60663400639889      0.09771665592325     -1.20171346592233
  H           2.54269356909895     -1.26031168781864     -0.08456286022021
  H           3.81074766147203      1.46204630132608      0.52214207045588
  H           3.74902769755831      0.10475903050650      1.64028621014395
  H           5.11961539135253     -1.28214772889967      0.04261955546470
  H           5.18097208415050      0.08192248124012     -1.08393710420004
  H           5.97474046378672      0.20110073065516      0.49425503851056
