25
Coordinates from ORCA-job geoopt E -389.618090974771
  C          -4.78870356638478     -0.37417651678628     -0.05449159850335
  C          -3.54196590130825      0.50007538057346      0.05144523039652
  C          -2.24742796209072     -0.30535039018581     -0.04714438531969
  C          -0.99222930710560      0.55873985595951      0.05494117031185
  C           0.29745755401918     -0.25544800846919     -0.03210421573843
  C           1.53781877110233      0.62062220983014      0.06788043589017
  C           2.85002666438948     -0.11129898701598     -0.00242878067974
  O           2.91305211589500     -1.33813449586648     -0.00547902049163
  C           4.08720101731105      0.73356355742742     -0.08990137128993
  H          -4.81044445847519     -1.12525260976652      0.74407503203696
  H          -4.81458732588381     -0.90699746822295     -1.01244331793725
  H          -5.70544966897640      0.22072572718003      0.02166046086502
  H          -3.55593628730922      1.26014452989534     -0.74205395010164
  H          -3.55496550543551      1.04686761595234      1.00451331805517
  H          -2.23226378277235     -1.06444303011858      0.74877815862794
  H          -2.23440187260128     -0.85502124418634     -0.99981210056313
  H          -1.00810293756521      1.11353202343712      1.00435875369339
  H          -1.00271812664844      1.31249678876143     -0.74570349046782
  H           0.31317606984057     -1.00428081883639      0.77020670782254
  H           0.31924708714424     -0.81157124490223     -0.97883043427672
  H           1.54895876562397      1.39471375610754     -0.71385498564895
  H           1.54758094915463      1.18159748340809      1.01567267811819
  H           4.18862399799692      1.07760516563456     -1.12772218843668
  H           4.00313401008091      1.62736554507245      0.53574472588207
  H           4.97494859939850      0.15621030231734      0.17658455465514
