26
Coordinates from ORCA-job geoopt E -925.487237681901
  C           0.55949089025097     -1.42316044638907     -1.05010044805071
  C           1.91108339199154     -1.65553065388241     -1.21380316564459
  C           2.84799397838995     -0.86700725097164     -0.54085872055947
  C           2.40094449723785      0.16851204287257      0.31183855349793
  C           1.02297832186392      0.38492906392456      0.46098237288287
  C           0.08981253851021     -0.39662334669402     -0.20855908908576
  C          -1.35422417155467     -0.16485111244689     -0.00481021966678
  C          -1.88063709148480      0.07163533659053      1.27287152230210
  C          -3.23463926008378      0.30170096799486      1.48358289804127
  C          -4.07530394826599      0.29105884164223      0.38417891564423
  C          -3.62337632211129      0.07024367631750     -0.90491098719497
  C          -2.26653896587689     -0.15098958426176     -1.06153649090268
  F          -1.81225957779270     -0.32882732131769     -2.32581019475593
  F          -5.40003042411750      0.50568653411192      0.56908741007585
  C           3.38408631917894      0.99428925691510      1.01089627310360
  O           4.60582243869852      0.84291777778785      0.90223571315264
  O           2.86037390135148      1.94701279434181      1.79691428538994
  O           4.15885350784827     -1.13644341494988     -0.73752302389273
  H          -0.14929160416172     -2.06346434398401     -1.56604813137081
  H           2.26547047121993     -2.45521715841014     -1.85682515046571
  H           0.68473060932937      1.19062437182025      1.10374237022342
  H          -1.20804769637174      0.05644496090058      2.12544025205710
  H          -3.63223702051131      0.47346106216106      2.47808724556537
  H          -4.29414610261797      0.08127332548582     -1.75723639807303
  H           3.59220014888672      2.43579733928943      2.21233429724815
  H           4.66688985149268     -0.48923262904854     -0.19004925942128
