17
Coordinates from ORCA-job geoopt E -678.441246063055
  C          -1.66891785500284      2.44601441559457     -0.32010783570438
  C          -0.80565605775112      1.20483847232668     -0.23410944544664
  H          -0.44144192378546      0.91381766145334     -1.22178689056292
  C           0.32290209385995      1.40578170835440      0.76141779651735
  O           1.08094763996230      0.19685541751013      1.01991015419579
  N           2.00473374297295     -0.15032091104333      0.00030307555282
  O           2.55610396217444     -1.19904935132865      0.22016792444044
  O           2.13699345574332      0.60117265340789     -0.93244870085787
  O          -1.69652321024098      0.14969040492172      0.26866171818317
  N          -1.40259838873348     -1.16636203944830     -0.14953770569996
  O          -0.47954823350267     -1.35116318811472     -0.90582370383564
  O          -2.16510099341818     -1.97467734443479      0.32081878875880
  H          -2.07972063263792      2.70854219257725      0.65943778986699
  H          -1.05625570310142      3.27856881545289     -0.67820881782235
  H          -2.48686329686510      2.28770871242418     -1.02676978409446
  H           0.98461351329542      2.21360119478101      0.43642717800866
  H          -0.07996290386922      1.63973656266571      1.75143964780018
