22
Coordinates from ORCA-job geoopt E -496.470819177190
  C           3.33877584362384     -0.79062483447256     -0.28638791299439
  C           3.33779206484469      0.58035456255022     -0.03295415680619
  C           2.14241552481475      1.24115472167821      0.23016822891076
  C           0.93335468605080      0.54007372086303      0.24938652296584
  C           0.93826718666984     -0.83124249299311     -0.00515234080698
  C           2.13655141866614     -1.49187966198883     -0.27272168056505
  C          -0.33541028312864      1.29697764585870      0.57897945767823
  N          -1.54775073634562      0.56661313618338      0.23813613416009
  C          -2.04806450076580      0.37595298303494     -1.03174115215118
  C          -3.06241504896189     -0.53367599628101     -0.89689520811314
  N          -3.18594259100512     -0.92738187185295      0.42267987449384
  C          -2.24594420058105     -0.25454642372426      1.06733490298325
  H           4.27107671758602     -1.30702196863147     -0.49679399116069
  H           4.27015926886115      1.13806810449256     -0.04601887646675
  H           2.14433190928782      2.31208441666889      0.42154907011947
  H           0.00739084565633     -1.39296308066276      0.00163915863996
  H           2.12664632109830     -2.55985593723314     -0.47230742346588
  H          -0.37288943360206      1.51585231490834      1.65271958219807
  H          -0.34539701183793      2.25750542383133      0.05280480114529
  H          -1.64879214545731      0.90395984291156     -1.88622619449927
  H          -3.71294205994379     -0.92059535198339     -1.66974135201175
  H          -2.03434418363047     -0.30960904225769      2.12823404294647
