20
Coordinates from ORCA-job geoopt E -461.222992280884
  C          -2.99156026919884      1.24026359086842      0.00002013196403
  C          -1.75499596880725      0.38366526361153      0.00010760333500
  C          -1.83341475902295     -1.00653431703284     -0.00007475672874
  C          -0.67659881220708     -1.79051609595532     -0.00004030933605
  C           0.56934238420187     -1.18889221098201      0.00016424355712
  C           0.66523462788504      0.21481065706281      0.00026530412090
  C          -0.48839621195040      0.98897496570159      0.00025843051379
  O           1.94849870855740      0.69894539403653      0.00028473714597
  C           2.11545615109063      2.12461684946755      0.00026460604105
  O           1.70283939903743     -1.97449065621296      0.00020625639630
  H          -3.89532769481136      0.62480288407394      0.00091390229198
  H          -3.02355904573975      1.89233725063856      0.88065911359745
  H          -3.02440085672407      1.89091856143015     -0.88164758583926
  H          -2.80519048212636     -1.49295796141753     -0.00021378687982
  H          -0.73743379758281     -2.87538055481593     -0.00014668235250
  H          -0.41976355640583      2.07241397328813      0.00036246016881
  H           1.67123282312393      2.56972761868606     -0.89757042862804
  H           3.19274145212718      2.29615336767653      0.00048413228572
  H           1.67083856673702      2.56981604713771      0.89785755770925
  H           2.47719169951620     -1.39183874376294      0.00043875873704
