29
Coordinates from ORCA-job geoopt E -504.145282911078
  C          -5.97896939740864      0.88258760318895      0.13594177440032
  C          -4.72894139884477      0.29262556544414     -0.51145566637815
  C          -3.44966889073091      0.64529622971003      0.24591416032889
  C          -2.19087360578549      0.06487215969742     -0.39565214055407
  C          -0.91408605446083      0.41624268051383      0.36547824221050
  C           0.34110263984004     -0.15570697076744     -0.29034698820799
  C           1.60067399292862      0.20349105012953      0.48697900847590
  C           2.86254343312010     -0.32599075057210     -0.13055362556495
  O           2.93351789404975     -0.96196747220791     -1.16916156157036
  O           3.94510119396761     -0.00969900067061      0.60817919512633
  C           5.22179360596528     -0.46794079669949      0.09445896026523
  H          -6.88411368433844      0.61862347410684     -0.42190895923089
  H          -5.92012626761528      1.97666530973678      0.17857221732851
  H          -6.10023548858394      0.51619379543799      1.16225734158906
  H          -4.82446375334319     -0.80055136053005     -0.56909387287358
  H          -4.64581231911594      0.65130838685369     -1.54681994960925
  H          -3.35549533667074      1.73957721662883      0.30667918380128
  H          -3.53092922692289      0.28354345677797      1.28156097054513
  H          -2.10878493128977      0.43012240236115     -1.42977829987466
  H          -2.28601508321024     -1.02893890477724     -0.45914003366313
  H          -0.82093857574565      1.50960544017633      0.43627620159152
  H          -0.98956259590450      0.04259392088745      1.39685770565670
  H           0.25513046595997     -1.24760864829161     -0.36256375373775
  H           0.42468163049768      0.22310270141884     -1.31702350893985
  H           1.71133952708503      1.29297740471218      0.57462560441244
  H           1.55083757772035     -0.17388809274924      1.51701804578142
  H           5.23623950441204     -1.55930156942230      0.03368919170252
  H           5.96399982695782     -0.11850537343165      0.81199175537613
  H           5.41186403636695     -0.03433493456233     -0.89085064848727
