30
Coordinates from ORCA-job geoopt E -1963.267262289069
  C          -1.70996126067992      3.18319293136339     -0.83699038617450
  C          -1.28313480457993      2.25692254831130      0.27120686933805
  O          -1.47575383647932      0.88529076321439     -0.21158185324960
  P          -1.12709786422397     -0.35133459223957      0.75474405118205
  S          -2.00555513496240     -0.41737487657745      2.49194035225311
  O          -1.49755850481978     -1.48547851349221     -0.32523418995773
  C          -1.37073891742725     -2.90232635008907      0.03497710687451
  C          -1.69409423575874     -3.70426934224625     -1.19863321762742
  S           0.95370897055827     -0.41285828919327      1.04566694184932
  C           1.58742632967795     -0.48002336984561     -0.70477967162278
  S           1.77498070230160      1.10898651158910     -1.56378273526926
  C           3.04475731673408      1.92946356766344     -0.51593271283551
  C           4.41204255449811      1.26841535661328     -0.53696802562962
  H          -1.57811899552568      4.21765790553354     -0.50367377695586
  H          -1.10065765009466      3.02770917040825     -1.73240658458396
  H          -2.76406837546890      3.03384708832867     -1.08983885851292
  H          -1.89073892175305      2.39411289072922      1.17250232696588
  H          -0.22392933274954      2.38866298007938      0.52125453459990
  H          -0.34576724170719     -3.08582197987735      0.37791772535978
  H          -2.06774093389924     -3.11259695741980      0.85316571296558
  H          -0.99425183007393     -3.47728774391817     -2.00863418064632
  H          -1.61205372964835     -4.76935468833747     -0.95943141834508
  H          -2.71429693979994     -3.50492450596009     -1.54012730729544
  H           0.90909847483111     -1.09685432630537     -1.30221278670044
  H           2.54439558447444     -1.00528792333603     -0.62916144686954
  H           3.09726559645595      2.95000441582775     -0.91104387338698
  H           2.64601902211729      1.99641647815474      0.50349108355942
  H           4.38308023086650      0.25661909995126     -0.12061914552231
  H           4.81129646988950      1.21361703040625     -1.55424079733466
  H           5.10786851424699      1.85483759446375      0.07444514187234
