17
Coordinates from ORCA-job geoopt E -761.981965663575
  C           1.73025610019124     -0.51630665898482      1.21449355111084
  O           1.28370264023647     -0.17944296256398     -0.13199499959259
  P          -0.26851491234476      0.12014923672130     -0.38635878973714
  O          -0.46477027210547      0.44065489556910     -1.82586945463378
  O          -1.10724052381370     -1.10101528062280      0.20666706233202
  C          -0.99066238986146     -2.38965752252922     -0.46794993275487
  O          -0.73451688658452      1.21898956640815      0.67297556278479
  C          -0.18839695002942      2.56472406828044      0.53036848503333
  H           1.52225655915334      0.30992600349968      1.90055191096923
  H           2.80598797203344     -0.67722075878053      1.13960918321945
  H           1.23813401264170     -1.43043782041708      1.55928964132066
  H          -1.39324642453603     -2.31910911671979     -1.48216677293033
  H          -1.58344869111414     -3.08762016378019      0.12297078293240
  H           0.05379304340334     -2.71503460181514     -0.49227313940056
  H          -0.57577442374588      3.13229811311054      1.37635856964870
  H          -0.52890761430167      3.00950825757906     -0.40869316427478
  H           0.90491998147751      2.53866485164530      0.56771745227262
