16
Coordinates from ORCA-job geoopt E -213.725354186865
  C           2.45197878452001      0.16020340957245     -0.41285177760112
  C           1.22998418363344     -0.16010971063164      0.43013935903559
  N          -0.01136188708958      0.25480645064785     -0.24204177111544
  C          -1.19443730282261     -0.19539847493266      0.50808881658086
  C          -2.47714930041176      0.09032261767676     -0.25325557730494
  H           2.40186525899638     -0.34949511141523     -1.38264807985492
  H           2.53945095820663      1.23640416251779     -0.59770011428465
  H           3.36399176318391     -0.17357041838246      0.09295205406900
  H           1.29159869596654      0.36600614414757      1.39218178881309
  H           1.22116894687840     -1.24082625453090      0.66589899834738
  H          -0.03310760250673     -0.22777389412821     -1.13974597556566
  H          -1.13984687459757     -1.27546707489141      0.74060648697020
  H          -1.20848842900146      0.32870005569058      1.47310395566583
  H          -2.60676974507765      1.16363510596549     -0.43009431891034
  H          -2.47601803670639     -0.41781440813820     -1.22516648715995
  H          -3.34462486727156     -0.26878593056778      0.31024588841506
