17
Coordinates from ORCA-job geoopt E -475.990256220318
  C          -2.91395167793552     -1.46972988225246     -0.00016965019505
  C          -1.81017824633270     -0.45320377800702      0.00024401825911
  C          -2.10551815414550      0.91727494377235      0.00013556721826
  C          -1.09693589068505      1.87550043505269     -0.00007970323326
  C           0.23833939112663      1.49249556028767     -0.00014556399732
  C           0.52039436002054      0.13121495116523      0.00000175851855
  C          -0.47425247065930     -0.84402305108984      0.00022469187980
  N           1.91953400577616     -0.29672209450024      0.00000403227921
  O           2.79679636974484      0.56693442100310     -0.00015652859730
  O           2.16406072187848     -1.50308924902127      0.00006813989449
  H          -2.51720915074912     -2.48766186334616      0.00685696732735
  H          -3.55779490392010     -1.34220228769914      0.87693572179695
  H          -3.54853826742647     -1.35120151581882     -0.88532437828055
  H          -3.14568133482033      1.23408166616701      0.00025763539229
  H          -1.35094425199460      2.93081483132880     -0.00011163843913
  H           1.03518066866025      2.22616877251256     -0.00023497185600
  H          -0.20838766733821     -1.89501110455448      0.00042532773259
