17
Coordinates from ORCA-job geoopt E -384.806567893592
  C          -1.08699076101865     -1.92697012472958     -0.00003460033208
  C          -0.02486534450966     -0.86886731352832     -0.00002454716878
  C           1.31755748053802     -1.24875809251890     -0.00002448358190
  C           2.34648262079898     -0.30921108486317     -0.00001800601526
  C           2.05853103999806      1.05333677390588     -0.00001215509202
  C           0.73313229414318      1.45746435588975     -0.00001435837204
  C          -0.31227048115280      0.51905157239484     -0.00001918750296
  C          -1.66354619640101      1.08051840325815      0.00000115238710
  O          -2.71823282574432      0.45248754578751      0.00003990381371
  H          -1.73662179498137     -1.84164064934991     -0.87730689462121
  H          -0.62712438514437     -2.91864996579777     -0.00008736539327
  H          -1.73655879820375     -1.84171124227841      0.87729338244927
  H           1.56242939630397     -2.30776902046014     -0.00002968044185
  H           3.37921446590541     -0.64701659069704     -0.00001771421043
  H           2.85842340517242      1.78732457988160     -0.00000625982235
  H           0.48594752978079      2.51674280313088     -0.00000988091456
  H          -1.68771100988490      2.19015128507464     -0.00002953328135
