22
Coordinates from ORCA-job geoopt E -2761.087875720969
  C          -4.40177811305274     -0.44408761245415      0.23929880631960
  C          -3.62032122691877     -0.93671470880731      1.27661007175682
  C          -2.23706639216664     -0.81607898365707      1.22196850837554
  C          -1.59610743731751     -0.20057804789100      0.14026100240119
  C          -2.39237133436340      0.27931622893706     -0.90587339713031
  C          -3.77123332838564      0.15418459867176     -0.84350247502703
  Cl         -4.74274511214254      0.77695219206572     -2.16846882059807
  C          -0.12768377186580     -0.03819158526836      0.04378357050822
  C           0.58059554920456      0.64428196567858      1.03305352823786
  C           1.94998337565089      0.81767672750027      0.90523331158357
  C           2.64533697560944      0.31788523204143     -0.20211919697905
  C           1.91760012044216     -0.35617705905825     -1.18728054358133
  C           0.54586352318273     -0.53199563811867     -1.07233816287719
  Cl          2.72478927918649     -1.00216727329729     -2.59145310006796
  Cl          4.35863687261170      0.53157595315657     -0.34879971034943
  Cl          2.79974545906911      1.68628486199556      2.15645105891711
  Cl         -1.30163674547754     -1.52399315938323      2.53124342996865
  H          -5.48167735315022     -0.53570882415181      0.28035736963028
  H          -4.09329843358278     -1.42435696079997      2.12217322687307
  H          -1.91779102572867      0.76349464996512     -1.75311745905537
  H           0.06714815963930      1.06069420995588      1.89255209678017
  H           0.00579775415589     -1.06555879678083     -1.84722651938635
