16
Coordinates from ORCA-job geoopt E -400.889832249794
  C          -2.59638731127001     -0.00179385367872      0.00136121097880
  C          -1.90076260772190      1.19216495028586     -0.17952220794337
  C          -0.51135458106779      1.19551868868247     -0.18045878855839
  C           0.19754792296493      0.00084334359021     -0.01694148511436
  C          -0.50520035337125     -1.19607657901561      0.16431282912055
  C          -1.89619649060899     -1.19282546595082      0.17771101738374
  C           1.69074826649393      0.06424920692853     -0.01738629820976
  O           2.28739826013800      1.11717768608393      0.27358682033089
  N           2.35333457496001     -1.06056395400726     -0.34196385177952
  H          -3.68264683546392     -0.00350559206497      0.00884753206945
  H          -2.44273015219370      2.12305486532652     -0.31863916983932
  H           0.03478405471201      2.12351060006418     -0.31864530412439
  H           0.02003809953986     -2.13353517630268      0.32331995080994
  H          -2.43397993869002     -2.12373512490354      0.33172089243397
  H           3.36264080975862     -1.04138293520638     -0.36358797939841
  H           1.87780501302023     -1.88249329193173     -0.67901249785983
