20
Coordinates from ORCA-job geoopt E -721.058872797185
  C          -2.56210783012555      0.08174638684856      0.82416569563834
  O          -1.14381255245216     -0.18588085975843      0.94757653792513
  C          -0.40065876444107      0.10576536310763     -0.18946874921429
  C           1.06896262058292     -0.26444117186640      0.19859103971655
  F           1.50732151496511      0.43730795658447      1.26515843894454
  F           1.89679913410839     -0.00506705886777     -0.83085407181760
  F           1.19661009056765     -1.57205829129216      0.50885196513712
  O          -0.79701147140219     -0.58215366399257     -1.34072696386348
  C          -0.99379221259579     -2.01255780349604     -1.24197881035095
  O          -0.48371980040165      1.43462858363076     -0.61709608465995
  C          -0.26622055263775      2.47415980326452      0.36574983367021
  H          -2.99314810005512     -0.19869967161907      1.78575418242894
  H          -3.00767828057145     -0.52346484106017      0.02863003244374
  H          -2.74539743159265      1.14343060249481      0.63244965983981
  H          -1.75125127929283     -2.25614252065528     -1.98955924076679
  H          -1.35368797604813     -2.30366331447485     -0.25167070943476
  H          -0.06601228367198     -2.54374268821670     -1.47529357386598
  H          -0.82389664967950      3.33957940711196      0.00279430560666
  H           0.79684081536855      2.72591597663612      0.43031411666428
  H          -0.64397351622480      2.18459843822062      1.35005003825849
