20
Coordinates from ORCA-job geoopt E -236.989960858221
  C           2.57131650504990     -0.15155559154418      0.26461604994194
  C           1.25608309383635     -0.67424124098312     -0.30972053263839
  C          -0.00001483204039      0.03104844039461      0.22220092223643
  C           0.00024388673013      1.52070022144051     -0.12427526697167
  C          -1.25621666728772     -0.67387273831326     -0.30993472403673
  C          -2.57136655876777     -0.15112611044222      0.26455483174230
  H           2.55316036755496     -0.16539686744012      1.36129863318092
  H           3.41353279016271     -0.77165482465679     -0.06154849622714
  H           2.77997624252726      0.87517514077544     -0.05306890585490
  H           1.17117145749708     -1.74650843878368     -0.08584101098931
  H           1.27184189525794     -0.58713176319301     -1.40641797829278
  H          -0.00016552306984     -0.06691290018579      1.32039374766241
  H          -0.88037875588889      2.02998802320127      0.28004707029604
  H           0.00054882928526      1.66065733929224     -1.21365319072999
  H           0.88077026328455      2.02978935318280      0.28050754905488
  H          -1.27200468511173     -0.58652854941190     -1.40661229615654
  H          -1.17153492088441     -1.74621446570340     -0.08630287991109
  H          -3.41371362314011     -0.77087751024151     -0.06191857822877
  H          -2.77977264864931      0.87579679742583     -0.05269418846645
  H          -2.55323396614596     -0.16536693061371      1.36123211518883
