25
Coordinates from ORCA-job geoopt E -613.880746910137
  C          -3.93276824379490     -1.87438197242038     -0.07497963729149
  C          -4.02805098525380     -0.54758485019606      0.67269150867700
  C          -3.16066968844004      0.53930226948338      0.07940186606855
  O          -1.77136679414260      0.10974524741115      0.20479383994558
  C          -0.83673479470584      0.94045080190152     -0.28479521010112
  O          -1.10991219940936      2.01608828919469     -0.80766519918342
  C           0.53345229552896      0.42120449574122     -0.12499259231942
  C           1.60661283112841      1.20796054413939     -0.56687438493496
  C           2.91005643116837      0.76468536500752     -0.43933442721283
  C           3.15696300470057     -0.48481537676484      0.13697812744872
  C           2.09943735267849     -1.28404039162453      0.58092301246128
  C           0.79753058234624     -0.82981720054741      0.45009031727612
  O           4.45848014375945     -0.87988064093136      0.24342792268345
  H          -4.61801432833473     -2.61250427366900      0.35369614355031
  H          -4.19277407132341     -1.74624353251997     -1.13206554045331
  H          -2.92140846953554     -2.29097426666104     -0.02429283912082
  H          -3.76718253737679     -0.68111440184257      1.73012924982029
  H          -5.05959151516509     -0.17473938046849      0.64669088115157
  H          -3.37979894754860      0.69571044996031     -0.98334157895401
  H          -3.27875374841138      1.48958865347585      0.61086727668658
  H           1.41000683708733      2.17751740557205     -1.01351267169628
  H           3.74375820709738      1.37165945238588     -0.77882972425096
  H           2.30577741093076     -2.25428902694925      1.02570951298930
  H          -0.01830320261382     -1.45485170968070      0.79665586840724
  H           4.49729904592996     -1.75417707069738      0.65817674715260
