15
Coordinates from ORCA-job geoopt E -345.714433235356
  C          -2.62362700383130      0.49991692359993      0.00162630076468
  O          -1.24047636268215      0.93562799398803      0.00202051089434
  C          -0.31438621285904     -0.04607581034050     -0.00072739150461
  O          -0.60393304358083     -1.23462638171629     -0.00358343589368
  C           1.05324760962904      0.49689760893840      0.00026846085345
  C           2.11437994189905     -0.29784442653320      0.74150666698115
  C           2.11463992515359     -0.29499384786947     -0.74342008754313
  H          -2.83504207714620     -0.09171277336766      0.89619787331689
  H          -2.83602170917475     -0.08691003436389     -0.89587892754186
  H          -3.21456736836362      1.41564585375967      0.00437176824419
  H           1.13609527766864      1.57786382392553      0.00246978298624
  H           2.86415793118367      0.28888284314573      1.26183627622877
  H           1.77475712565985     -1.19605090163157      1.24771704860421
  H           2.86466824010872      0.29367626214112     -1.26119418403405
  H           1.77527272903533     -1.19128836447583     -1.25318520935661
