16
Coordinates from ORCA-job geoopt E -213.734587031707
  C           2.55414766012133     -0.32352352767763      0.00003396279199
  C           1.28174796822332      0.51962638962578     -0.00010594820456
  C           0.01141580882028     -0.33012172650780     -0.00002068859773
  C          -1.26317512600593      0.50899620467464      0.00000866426825
  N          -2.52075001222588     -0.26195007858264      0.00008438048114
  H           3.45231652374130      0.30375185333026     -0.00013051477721
  H           2.59719475783604     -0.96908866290845      0.88516839644754
  H           2.59713650845186     -0.96946966562535     -0.88482617169881
  H           1.27595105053322      1.17812376214381      0.87956085842831
  H           1.27599004263266      1.17789903119573     -0.87993949590459
  H           0.00892853020326     -0.98701892565292     -0.88274779460036
  H           0.00901297689337     -0.98697742239807      0.88273703265118
  H          -1.26443724303357      1.16715846804697     -0.87873082387587
  H          -1.26436523603177      1.16722067880183      0.87870148080530
  H          -2.50265810662024     -0.88480164112975     -0.80427812379962
  H          -2.50257736443924     -0.88477593383640      0.80446521928505
