23
Coordinates from ORCA-job geoopt E -425.550184989078
  C           2.86366214285127      1.41434112658374     -0.27716342542998
  C           2.58880243482855     -0.09120145956760     -0.29189794297391
  C           2.86149674103634     -0.70780958594807      1.08213511167016
  C           1.17936126612119     -0.42331868419814     -0.81240362463625
  C           0.06241695639282      0.11491024465863      0.05712895276404
  O          -1.19307865122589     -0.28061965398244     -0.58194092688984
  C          -2.32594872255549      0.08174192811817      0.04372941663936
  O          -2.33815468273083      0.72687235548967      1.08130371333444
  C          -3.54347118386845     -0.42563319153805     -0.65952253367915
  H           2.64358548186593      1.87022979143376     -1.24943518477200
  H           3.91586986459195      1.61085885779679     -0.04271096998988
  H           2.25886203695335      1.92541021330423      0.48106771884436
  H           3.28628948149033     -0.54969082241039     -1.00705772631571
  H           3.91574962946123     -0.58737880480244      1.35548401229233
  H           2.63018276734464     -1.77927685571099      1.09242330827284
  H           2.26374837238763     -0.22499878647791      1.86417360490343
  H           1.07196171659945     -1.51336413560648     -0.88560272392592
  H           1.06516692998886     -0.01380798336951     -1.82449874325944
  H           0.07887918711789     -0.30838208533005      1.06643490362534
  H           0.07795654711115      1.20708771697344      0.12883036166358
  H          -3.75647391122774     -1.43408843522178     -0.28499912110069
  H          -3.38716665006708     -0.49073552385850     -1.73798999415688
  H          -4.39647042446710      0.21456522606391     -0.43003358728023
