21
Coordinates from ORCA-job geoopt E -350.090453171342
  C          -2.35346799365416      0.15725262791115     -1.25921551679136
  C          -1.69857810808631     -0.42877595669850     -0.00259136858305
  C          -2.35191409996984      0.13960295183486      1.26297094277357
  C          -0.20074937761177     -0.19960101760449     -0.00151996827629
  C           0.32984301609376      1.09648810918501      0.00593963533453
  C           1.70608891717086      1.30429771610066      0.00727503248356
  C           2.58143552598022      0.21864170155546      0.00119084031771
  C           2.06643574042061     -1.07464972637368     -0.00625648516250
  C           0.68691022705377     -1.27861531632207     -0.00757534080460
  H          -3.42471182496038     -0.07321476278702     -1.27424440318088
  H          -1.90277589943456     -0.25201743243904     -2.16987219888236
  H          -2.24435666132112      1.24764658855093     -1.28561941354559
  H          -1.86013444643730     -1.51500112838512     -0.01009424583292
  H          -1.90036894392386     -0.28267533310624      2.16723814948763
  H          -3.42325862225802     -0.09053965552478      1.27594513612627
  H          -2.24215569946019      1.22946118394044      1.30457177438157
  H          -0.33882605222792      1.95405884994451      0.01079210332725
  H           2.09809788313672      2.31805572840271      0.01313110289832
  H           3.65569456564348      0.38138113575951      0.00223807231612
  H           2.73827668734081     -1.92899219684687     -0.01105866018511
  H           0.29193806730523     -2.29243368159745     -0.01343861100188
