19
Coordinates from ORCA-job geoopt E -253.034744778231
  C          -3.21510237244939     -0.22775207440457      0.00005701127079
  C          -1.89815362935249      0.54398985039910      0.00005094929451
  C          -0.67636288410701     -0.37358549410189     -0.00002736279000
  C           0.64819847185107      0.38819794716739      0.00003403181059
  C           1.86286650056348     -0.53582398583758     -0.00013365584556
  N           3.16981327308826      0.14799514794329     -0.00004688006619
  H          -3.29397128066658     -0.87023039154145     -0.88498896092480
  H          -3.29397134442423     -0.87021400864334      0.88511443282604
  H          -4.07739197036614      0.44799630074272      0.00005020655980
  H          -1.85579717430002      1.20102501082130      0.87976552356621
  H          -1.85585361427501      1.20111453826587     -0.87959840317710
  H          -0.71843952789637     -1.03149696018721     -0.88062280502131
  H          -0.71844114889378     -1.03164759339296      0.88045467019977
  H           0.69665892317211      1.04289668339602      0.88296513060478
  H           0.69659664433317      1.04316014679857     -0.88270394824391
  H           1.81942791475430     -1.19240895846417     -0.87898397558746
  H           1.81944948690825     -1.19270034883708      0.87850028417746
  H           3.19422931320600      0.77044597077838      0.80445335026928
  H           3.19426567545438      0.77057446199761     -0.80444600792288
