22
Coordinates from ORCA-job geoopt E -387.415155042101
  C          -3.03433482109687     -0.86911298646238      0.31235639719143
  C          -1.75229458288306     -0.55768829383481     -0.42373911623265
  O          -1.06208776589127      0.48211009410934      0.29732141042468
  C           0.04918122463078      1.01917608408702     -0.40124241811657
  C           0.56395617534768      2.19011192830983      0.40828202345833
  O           1.03626624410743      0.02926657210457     -0.67736188359356
  C           1.67558667126511     -0.54869551723204      0.48054029040717
  C           2.44935033772687     -1.76238998726088      0.01858980524126
  H          -3.68582518095990      0.00959767170265      0.35875516426393
  H          -3.57203325641879     -1.66901320581941     -0.20674983166667
  H          -2.82587383913363     -1.20574232441603      1.33334317070857
  H          -1.95747791796860     -0.21092798061378     -1.44819712490175
  H          -1.11502361437636     -1.45045486950406     -0.48829426118753
  H          -0.27110884693000      1.34273014450265     -1.40375820614601
  H          -0.19112468421706      2.98123462666050      0.42238174965034
  H           1.47466850080497      2.58761345962399     -0.04874676255610
  H           0.77826140257536      1.89849426650198      1.44058411029619
  H           2.35077251447816      0.18666706789570      0.93949083846319
  H           0.91763721551897     -0.83134351514051      1.22344378660484
  H           3.20199568691788     -1.48662484948113     -0.72753895708454
  H           2.96420215317608     -2.21797474402826      0.87062490193563
  H           1.78008167752624     -2.51060121790494     -0.41893914126020
