14
Coordinates from ORCA-job geoopt E -307.641926449536
  C           1.06155744092120      1.41293240021494      0.24677500556614
  C           0.76220893602056      0.03623090814197     -0.30973446137884
  C           1.95934754837676     -0.88655334727162     -0.30945173515745
  O          -0.24589416227899     -0.61697318309323      0.55831262123532
  C          -1.52773830861644     -0.32217004376150      0.35357435425188
  O          -1.96642339655486      0.42971779179172     -0.49636172723913
  H           0.16472402078829      2.03857661410178      0.27149296979125
  H           1.47046661127708      1.33470933621012      1.25977492360845
  H           1.80517605931903      1.90447028028116     -0.38862774281902
  H           0.32705163277319      0.10615891913602     -1.31201859107420
  H           2.36838569141346     -0.99320926835905      0.70078734020693
  H           2.73704400921755     -0.46465311556160     -0.95340040488995
  H           1.69418976069515     -1.87606073063706     -0.69339424145495
  H          -2.15581746975198     -0.87074142859365      1.07164600365357
