38
Coordinates from ORCA-job geoopt E -1210.756671183820
  C          -2.39228982303017     -2.56003779385428      1.39170293070863
  C          -1.29715678692838     -1.51151959129818      1.61930435889763
  C          -0.09638950841850     -1.72261937525169      0.73078632787795
  C           0.69739496738810     -2.85714844330343      0.93450002134644
  C           1.80659231803426     -3.10894339165329      0.13984587919724
  C           2.14840896408661     -2.22492560759082     -0.87866094060204
  C           1.39388692066216     -1.07553945768246     -1.11263786436227
  C           0.27469660426397     -0.83708763348527     -0.29297702084032
  N          -0.51070784188592      0.34322938453514     -0.55516940698774
  C          -1.48810631173437      0.26510724241693     -1.64875571390739
  O          -2.70270461804547     -0.35545744208565     -1.27430123278614
  C          -3.57478746961761      0.48965156191662     -0.50990868304549
  C          -0.36112811916642      1.49816864789060      0.15231322882763
  O          -1.00148387488134      2.52244916661487     -0.08802497832055
  C           0.62653634753006      1.41146972349737      1.31136435482465
  Cl          1.24903526327443      3.04523731170909      1.77276673161840
  C           1.83918509775719     -0.11082977608676     -2.18479070647346
  C           2.83698780398144      0.93141842873258     -1.66353319132551
  H          -3.25307229238325     -2.35702454174695      2.03763303260673
  H          -2.02854479163000     -3.56724132232706      1.62021032797417
  H          -2.73513426802157     -2.55185938769763      0.35229126672051
  H          -0.96578543444774     -1.56442316950508      2.66433809925056
  H          -1.71470364056410     -0.51275487160868      1.47332257455578
  H           0.43322384883362     -3.54672770479595      1.73266218733716
  H           2.40929326750078     -3.99617262726031      0.31356045391777
  H           3.01771105021071     -2.42058883752765     -1.50198208364904
  H          -1.06382431221143     -0.37060474991224     -2.43011859922833
  H          -1.66149037488135      1.27778131579509     -2.03244031288129
  H          -3.12845615160823      0.77738677794559      0.44971467936225
  H          -4.48248285403058     -0.08828525801193     -0.32115343163002
  H          -3.82866130292109      1.39547583426646     -1.07649063241986
  H           1.48926705009416      0.78513377257481      1.08244444881441
  H           0.11118558692977      1.00023096306580      2.18565695052464
  H           2.31588296245879     -0.68889795105166     -2.98439169423314
  H           0.98591389150743      0.40835642380848     -2.63141449246608
  H           3.21648283161814      1.53914564610607     -2.49167958556281
  H           3.68944505614104      0.44755015868099     -1.17478916417894
  H           2.37030953893487      1.60909765468049     -0.94173504366211
