12
Coordinates from ORCA-job geoopt E -157.161085982806
  C           1.74969968028250     -0.31323555204643     -0.22617965758071
  C           0.56772701489913      0.58220800719118      0.16143064588585
  C          -0.68384702825793     -0.20799055580001      0.38719881106955
  C          -1.82341939432176     -0.04759630795290     -0.28361920387687
  H           1.93959272799898     -1.06755315865089      0.54562525642003
  H           2.66268688223458      0.27810259980471     -0.35143232383088
  H           1.55074917504268     -0.83696641362541     -1.16749476450566
  H           0.39391370523958      1.33842720063050     -0.61378036337142
  H           0.82276116036221      1.11927591063296      1.08623637875227
  H          -0.62518308033682     -0.97863558048692      1.15931092526850
  H          -2.69583975457706     -0.66180309897794     -0.07455777363448
  H          -1.91948076306609      0.70603076018114     -1.06388791799621
