22
Coordinates from ORCA-job geoopt E -574.551938806321
  C          -4.37947013921442     -0.49387022557003     -0.00002804632489
  O          -3.44186028220790      0.59807253931647     -0.00064805442410
  C          -2.11702615005400      0.29654614884859     -0.00009179987049
  C          -1.60583440576143     -1.00677109672799      0.00092544142258
  C          -0.23149382495480     -1.19345111590252      0.00141948091697
  C           0.64848317164181     -0.10655682657319      0.00089177716670
  C           0.12005238319870      1.19519548589183     -0.00016243978984
  C          -1.24581574093298      1.39562938481033     -0.00062160884590
  C           2.09673545989856     -0.37212005871368      0.00147685429574
  O           2.59683865147412     -1.49099466732393      0.00255502289154
  O           2.83700788687266      0.75419988153662     -0.00047844029286
  C           4.27305477794170      0.56650436788999     -0.00074185255029
  H          -4.26088111213154     -1.10903929984419      0.89879632896587
  H          -4.26055794367699     -1.11033880924271     -0.89791843825654
  H          -5.36675456024923     -0.03065107875817     -0.00054064980455
  H          -2.26061644855924     -1.87006787250284      0.00132124414278
  H           0.16749195013699     -2.20301625627010      0.00220661010237
  H           0.78133736598035      2.05466770183251     -0.00057873341716
  H          -1.66190437010673      2.39854027184200     -0.00139569079148
  H           4.58557754259876      0.02498638101778      0.89607801154937
  H           4.69425715302487      1.57175497832837     -0.00308990867715
  H           4.58480068988074      0.02111024421485     -0.89547337650866
