35
Coordinates from ORCA-job geoopt E -1246.113863821090
  C          -4.06542514806005      0.50423494213059     -1.73121393735475
  C          -3.00554603675192      1.07637949270110     -0.79597988489974
  N          -2.31307427480139      0.01279740249452     -0.05424824855848
  C          -3.15637772678159     -0.90920476791167      0.72491324149576
  C          -4.06542215958967     -0.15970260404748      1.69471973931891
  C          -0.96086360306200     -0.06584231862272     -0.01247356854568
  C          -0.26008739551715     -1.30409727381892      0.01559467743728
  C           1.13163948713682     -1.34480259971251      0.10105280609005
  C           1.89669937550178     -0.20901667333223      0.02175514323094
  C           1.28088860731872      1.07583788478635     -0.09902664037504
  C          -0.14517133664956      1.10663450589679      0.00760571443032
  N          -0.73717002503368      2.35508675277774      0.41431670605175
  O          -0.30469127104000      3.40998044858384     -0.08204413122554
  O          -1.61451484648741      2.35428218478479      1.27981982038446
  N           2.02453069552307      2.17884959350935     -0.22673538408407
  C           3.38661177581901     -0.33809063852604     -0.01025440479685
  F           3.99009968055566      0.37311153389893      0.98710246372201
  F           3.79855826410165     -1.61164302397162      0.12219344390290
  F           3.92105200210115      0.13030308638744     -1.17322494971766
  N          -0.87673805888467     -2.56401798287799     -0.30928339360800
  O          -0.34529229553202     -3.60108611141490      0.11503041157673
  O          -1.87124803308717     -2.58225237243885     -1.04278269085184
  H          -4.47168137975517      1.32575159023428     -2.32967162855169
  H          -3.63420593683643     -0.23819587854538     -2.41020213910783
  H          -4.89666450814396      0.04527467555484     -1.18894036750874
  H          -3.45848047652122      1.80400577548492     -0.11013484623766
  H          -2.26005645376932      1.60588650907742     -1.39677024366462
  H          -3.75098517233953     -1.54278462743933      0.05724229767348
  H          -2.49964127309090     -1.56222432650122      1.30468464945985
  H          -4.80633957662314      0.45848481955248      1.18041933268377
  H          -4.60670020532765     -0.90019995144317      2.29228964706582
  H          -3.48564729134520      0.47385895309022      2.37278156258778
  H           1.61175667415575     -2.31522643228551      0.12110055743838
  H           1.57585743266033      3.07520906190523     -0.34879197669739
  H           3.02620582695687      2.15546010913871     -0.11929497576461
