26
Coordinates from ORCA-job geoopt E -669.010980715549
  C          -4.32653469068492     -1.30158822720907     -0.41051657158965
  N          -3.28965535694198     -0.78548280078810      0.47498593026527
  C          -2.22114125486582     -0.15019978197670     -0.01462800756197
  O          -1.97688116109522      0.04573565803842     -1.20024976672147
  O          -1.39793594763200      0.28845715946699      1.00955622189752
  C          -0.17414507165960      0.84765157554399      0.61996915105709
  C          -0.02835434943785      2.20766317905731      0.67056346738015
  C           1.21971997740927      2.78347199144669      0.34935616704483
  C           2.28015104316979      1.99116643963100     -0.01771566370606
  C           2.14325110799319      0.58195874806589     -0.07392777822329
  C           0.88604813081360     -0.01810217090343      0.25761170163087
  C           0.75316963247877     -1.42671677699550      0.21205811715050
  C           1.82126273978419     -2.21062316827908     -0.15504465804189
  C           3.06209588109003     -1.62472424334778     -0.48873289994737
  C           3.21949895765175     -0.26022487917242     -0.44729445818279
  H          -4.77973097290707     -0.49699506176620     -0.99871216128320
  H          -5.09875652014643     -1.76535301523964      0.20458781690746
  H          -3.92140557819940     -2.05423813762971     -1.09451118883976
  H          -3.38203396064214     -0.88458993520253      1.47494475506632
  H          -0.87228033128743      2.82809217878654      0.95614561091166
  H           1.33065977262779      3.86280783647066      0.39216008739158
  H           3.24061068931921      2.43338115847411     -0.26891079299434
  H          -0.19581270066623     -1.88662418989608      0.47238540175478
  H           1.71253057258756     -3.29086256102602     -0.18734085430094
  H           3.89465660531719     -2.26016191967100     -0.77674184790555
  H           4.17354087662376      0.19565583462166     -0.69989113045976
