26
Coordinates from ORCA-job geoopt E -464.851090399339
  C           4.40614712929093     -1.35065838672630      0.34814993469164
  C           3.68899666275841     -0.16604797961818     -0.29308565307386
  C           2.24322577182174     -0.02961869149770      0.18082946653550
  C           1.52339163974365      1.15432831479106     -0.46267156639129
  C           0.11205028118971      1.35675308781915      0.03863247888485
  O          -0.67412673268561      0.19061441091514     -0.36216189696426
  C          -1.95976144660795      0.16674331374517      0.02600990786184
  O          -2.47458358849925      1.05707084373554      0.68459978464380
  C          -2.65862460536280     -1.07553316392541     -0.45142486726812
  C          -4.11406100940761     -1.15156995234607     -0.01853375264657
  H           3.89789316812902     -2.29272710329226      0.11091771005324
  H           5.44080068082746     -1.43159953346373     -0.00232168259158
  H           4.42962669580370     -1.25141325317286      1.43983016105502
  H           3.70160440076049     -0.27434743688743     -1.38641272599589
  H           4.23227592670800      0.76187843126541     -0.06694722856352
  H           1.70234265874239     -0.95932145960097     -0.04149697395719
  H           2.22650822336967      0.08944894735981      1.27395589050709
  H           1.50957571587717      1.04470426118898     -1.55539346973215
  H           2.07145212222747      2.08116846093296     -0.24586883743753
  H          -0.35023591427533      2.24877601429110     -0.39733107093629
  H           0.07965904298680      1.43682078106007      1.13127057857926
  H          -2.56498646408107     -1.10223535005022     -1.54454550173453
  H          -2.08565710440286     -1.93579559052592     -0.08285489576457
  H          -4.56646261918081     -2.07365775924138     -0.39448632839629
  H          -4.20369934857284     -1.14855072497904      1.07189070703170
  H          -4.68858980486049     -0.30672139307690     -0.40991743759031
