15
Coordinates from ORCA-job geoopt E -1152.761922570237
  C           1.41276771718194     -1.08229820992797      0.27904179459020
  C           2.48398259442499     -0.23374703051960     -0.34089624376116
  Cl          2.27847173246758      1.54246475361364      0.08527269349641
  O           0.15408262294190     -0.77230449566422     -0.31114111005053
  C          -0.90078860273438     -1.53849460213536      0.26229972747935
  C          -2.20700622667014     -1.15130917929175     -0.36670914259544
  Cl         -2.69527135485605      0.56463039430182      0.07572075712729
  H           1.67958422368897     -2.13534867275037      0.08173173207601
  H           1.37464273178733     -0.93928330942258      1.36949110565522
  H           3.46520953311605     -0.53100538056732      0.03388505631153
  H           2.46662001266974     -0.28992900920786     -1.43132628188106
  H          -0.93043279480081     -1.40079446097702      1.35370881655401
  H          -0.74915565715881     -2.61273518578550      0.05758986279338
  H          -2.15870029998560     -1.18346040577994     -1.45722561288976
  H          -3.00601791867271     -1.80253041778596     -0.00767880380547
