15
Coordinates from ORCA-job geoopt E -511.916450379186
  C           1.90037048590732     -1.46661112549117     -0.00002240678916
  C           2.58607229922537     -0.24261431641095     -0.00001233828548
  C           1.90261741882124      0.95731234144071      0.00000877330142
  C           0.50297143400489      0.97877123326326      0.00002026719054
  C          -0.18114628580483     -0.26147438059957      0.00001125251574
  C           0.52337488066714     -1.47412313324511     -0.00000826004379
  N          -1.61503701716950     -0.31243705503264      0.00002001848306
  O          -2.25258017514352      0.76411158776232      0.00002033401542
  O          -2.18513527412648     -1.40025151744109      0.00004636080902
  O          -0.09924603970836      2.17997955347407      0.00004526785409
  H           2.44841039643927     -2.40245424325291     -0.00004163254345
  H           3.67202969313110     -0.23322537959368     -0.00002029878123
  H           2.42796143393251      1.90717946968077      0.00001815093502
  H          -0.03206818966919     -2.40449701066856     -0.00001694597154
  H          -1.07057489280695      2.01693530641454      0.00006448611035
