38
Coordinates from ORCA-job geoopt E -1981.498855281892
  C          -5.36109157236696     -2.69228063543988      0.88257410793056
  C          -4.70444231692890     -2.13499346592091      2.12323831535806
  O          -3.24489451522041     -2.25882256315955      2.03917704111793
  C          -2.59162204232507     -1.31406877681335      1.35556492348260
  O          -3.11896138264541     -0.34600236266089      0.83356513155012
  C          -1.10952264431173     -1.59306540051026      1.31853956695844
  C          -0.38726817201048     -0.50938880232869      0.53220957595433
  H          -0.47797274392754      0.46465488580539      1.02291423900759
  C          -0.87325163818419     -0.42853091273504     -0.90340380956271
  O          -1.24676631491419     -1.39057879554887     -1.55167648555671
  O          -0.79173868365997      0.81595119834095     -1.36961364814070
  C          -1.11300790800771      1.01118679250815     -2.78721187334817
  C          -0.84410992358455      2.45836786592305     -3.10605699198430
  S           1.41809656942110     -0.94558955687646      0.47203609358251
  P           2.31975807900247      0.95978542311116      0.17038495012622
  S           1.64855042132878      2.41974927246701      1.25635494237397
  O           3.86256741528654      0.52647366949502      0.34002869523067
  C           4.43669746535555      0.35331939558622      1.66809832138854
  O           2.26324813377297      1.31834896827276     -1.39066449539463
  C           2.56454849163686      0.33644284070855     -2.42628521651470
  H          -6.44826745878850     -2.64428147642082      1.00489743022595
  H          -5.09050835255382     -2.11673262085325     -0.00738619902758
  H          -5.07936883033112     -3.73861492411404      0.73012419548382
  H          -4.96256859625003     -2.71557326345537      3.01123682667008
  H          -4.95728221405496     -1.08478865350996      2.29188594708749
  H          -0.95743627850979     -2.58572070435211      0.87915914429032
  H          -0.73563207945587     -1.63191742712114      2.34747289718179
  H          -0.48439772137995      0.33423320493307     -3.37445005375425
  H          -2.16378050371256      0.74225290204848     -2.93531317171091
  H           0.20827403621497      2.70905799826242     -2.94029718262175
  H          -1.07887220671482      2.63798655568007     -4.15979887692376
  H          -1.46848514614348      3.11949929752671     -2.49750691458136
  H           3.88645085520730     -0.40611619841269      2.23100904548069
  H           4.42757346722182      1.30629878467741      2.20315992776663
  H           5.46188765243237      0.02245140013558      1.50069847533365
  H           2.53154916383704      0.88932772162986     -3.36552911828526
  H           1.80703045728841     -0.45230122417419     -2.42692091013285
  H           3.56029811477583     -0.08826334020436     -2.27414363684229
