16
Coordinates from ORCA-job geoopt E -346.693024755665
  C          -2.77943990977557     -0.41828207374231     -0.00002240371245
  O          -1.79479896594758      0.62604025291724     -0.00002491542122
  C          -0.47558279406307      0.25024568835345      0.00001254508742
  C          -0.03697168090154     -1.07584018638737      0.00007115896052
  C           1.33420223767643     -1.33732700200547      0.00010551078265
  C           2.26281152848671     -0.30230512051878      0.00008282665173
  C           1.81006113682624      1.01865742108192      0.00002499494387
  C           0.45102383548807      1.29923370319107     -0.00001022715723
  H          -3.74604242400449      0.08788175952885     -0.00007004205235
  H          -2.69331621472827     -1.04216866485414      0.89754197894072
  H          -2.69325758456976     -1.04222731448276     -0.89754037623170
  H          -0.73883853197812     -1.90189249475524      0.00009068351605
  H           1.67084791549597     -2.37056120474312      0.00015091183263
  H           3.32683416483412     -0.51827288620103      0.00010982877702
  H           2.52224318416449      1.83938779604715      0.00000653286283
  H           0.08983864229638      2.32379968027053     -0.00005607148050
