33
Coordinates from ORCA-job geoopt E -897.829842066885
  C          -4.52111903885452     -1.23962726466163      0.02898701487572
  C          -3.69840581413701     -2.36123634510765      0.14327532257541
  C          -2.31760998454041     -2.21715898582372      0.17081559546988
  C          -1.73957574587496     -0.94829093779926      0.08442825495305
  C          -2.56933225748808      0.17981656874075     -0.02981696374121
  C          -3.95848315711472      0.02538127956383     -0.05687308171392
  C          -1.98026073653717      1.52789331716317     -0.11839383639326
  O          -2.69939733215499      2.52872641386690     -0.20835853026291
  C          -0.50179848177445      1.64757791605104     -0.09627787911632
  C           0.04005129033144      2.91816727737667     -0.20387263053288
  C           1.42880658015432      3.08342088354525     -0.18945869277398
  C           2.27001785358578      2.00293584311545     -0.06308608140328
  C           1.75452312967005      0.68447404998168      0.05668930102263
  C           0.32937558536881      0.50087221414368      0.03082447355218
  C          -0.26086464226725     -0.82056106868561      0.11623288860946
  O           0.42715983587241     -1.86147296787773      0.21402491601838
  N           2.59654182962390     -0.35576656576765      0.19788196137364
  C           4.04871454932234     -0.25950572640319      0.15715204703588
  C           4.66392020306001     -1.62221499913041      0.36832262277638
  O           4.27454923533686     -2.47391549699164     -0.72223024689662
  H          -5.60048493533058     -1.35589615510411      0.00714429690628
  H          -4.13802917495538     -3.35195850217551      0.21124669251451
  H          -1.67664313816743     -3.08778206676680      0.25975483566806
  H          -4.58805843469057      0.90480123962408     -0.14565154924224
  H          -0.61700266905228      3.77481105017316     -0.30118382868894
  H           1.85261532203045      4.07949668345914     -0.27908737490760
  H           3.34269811780703      2.15879791504363     -0.05254511256563
  H           2.16334192829576     -1.27451627029446      0.21825702203753
  H           4.41701427323395      0.40695592619367      0.94849992516159
  H           4.38468027147979      0.15236255666555     -0.80603244479924
  H           4.32782068660092     -2.04717942954889      1.32510053168374
  H           5.75586277604011     -1.50799255649731      0.40365350849754
  H           4.58646856982586     -3.36539993137208     -0.52288836629383
