23
Coordinates from ORCA-job geoopt E -1109.316620594870
  C          -3.93204472807440     -0.67602693603716      0.17039376340045
  O          -3.01420395036167      0.42225449529791      0.02469080174414
  C          -1.69057344561492      0.11338057626895     -0.01972255614090
  C          -1.15409420645422     -1.15590442398591      0.05761295312323
  C           0.23687129450288     -1.36694300649242     -0.00736536041311
  C           1.08665945780891     -0.26036488944179     -0.14702491223285
  C           0.56103250987730      1.02756700549199     -0.21200498965017
  C          -0.82296605107422      1.21812910728173     -0.15753110632942
  O          -1.36261335608726      2.45232132715504     -0.24007402066778
  O           1.34334325778927      2.14487028908337     -0.38336466127466
  C           1.85885593959962      2.68241212287908      0.86667314465888
  Cl          2.82433800708638     -0.43512326520300     -0.27139338624817
  C           0.74025370928621     -2.73483342048894      0.06914796355301
  O           0.01603753378439     -3.72172296745565      0.19252991736533
  H          -4.92520100484655     -0.22633584904477      0.18919892053713
  H          -3.74943171941874     -1.21238810412550      1.10846300562738
  H          -3.85255563450983     -1.36416679441159     -0.67886849179920
  H          -1.78702765523553     -2.02942537480501      0.16394622188021
  H          -0.64166005559067      3.09165427128889     -0.37466599301435
  H           1.03083402810650      2.96483375934949      1.52611090380017
  H           2.44059076249514      3.56486679927724      0.59618592654831
  H           2.50082303439366      1.94927936800569      1.36462824112942
  H           1.83443961903776     -2.86333043738762      0.01263967020295
