16
Coordinates from ORCA-job geoopt E -309.564160432002
  C          -2.97945502087017      0.35457475819204     -0.00173099045912
  C          -1.96873778374223     -0.52140678360242     -0.00046296867331
  C          -0.53343239367432     -0.21533520186760     -0.00061760007970
  C          -0.02854877831445      1.09579070936545     -0.00250436385453
  C           1.34047680966757      1.32655390339154     -0.00256070272716
  C           2.23915144092482      0.25812759317185     -0.00074545643518
  C           1.75326518201058     -1.04637687030645      0.00113206294161
  C           0.38127969135632     -1.27929661072182      0.00118756805003
  H          -4.00718123837528      0.00386275833974     -0.00145112625934
  H          -2.82736708728346      1.43087944171837     -0.00303896536802
  H          -2.20510292462861     -1.58579630878682      0.00086058731940
  H          -0.70913184925125      1.94233130369492     -0.00394997273501
  H           1.71262378958735      2.34745076911287     -0.00404657171885
  H           3.30927562407918      0.44474700168983     -0.00080663244705
  H           2.44300038345817     -1.88584634105893      0.00254856762494
  H           0.00571043935577     -2.30000230923257      0.00265769242129
