31
Coordinates from ORCA-job geoopt E -829.611241064518
  C          -3.79172465458834      0.62753947957432     -1.78694803213216
  C          -3.30572674398731     -0.38305569477022     -0.75062255810920
  H          -3.56539707613755     -1.39925232639202     -1.06944981622478
  C          -1.79968864674154     -0.33560818318464     -0.55277899945608
  C          -1.00384896684195     -1.44909188351960     -0.82223112571061
  C           0.37408747283069     -1.38952144693374     -0.65393808368210
  C           1.01335594824379     -0.22431684846239     -0.20965088856775
  C           0.18009976932109      0.86247750878916      0.06239077767225
  C          -1.19165921468296      0.83528323301317     -0.09554235290273
  F           0.72907452062978      2.00786518523518      0.54533107105872
  C           2.47997961387022     -0.17356655435041     -0.03543827664126
  C           3.14874347293447     -1.25068357141504      0.56161455414363
  C           4.53212741072217     -1.23314339799101      0.70562244298397
  C           5.27036198984573     -0.14147763103726      0.25425007344941
  C           4.61453794517152      0.93250063585189     -0.34407714443914
  C           3.23114289074379      0.92037408881044     -0.48713591125837
  C          -3.97271754073558     -0.16482103376020      0.59312528163566
  O          -4.56312479781859      0.84413455320058      0.93259542822075
  O          -3.82205992553926     -1.23125303209335      1.40632909707622
  H          -4.87598949892392      0.55540447946532     -1.91518982772904
  H          -3.54703679352253      1.65089571424004     -1.48905147729174
  H          -3.31284148777514      0.42297373889306     -2.74864096505123
  H          -1.46474699898028     -2.36662556665821     -1.17690303350040
  H           0.98135247115586     -2.25894615590311     -0.88976781856947
  H          -1.77216992249776      1.72084825322195      0.14936046281455
  H           2.57778685217605     -2.09946575527003      0.92855746983494
  H           5.03383157704550     -2.07339695175091      1.17735832382697
  H           6.35069797575767     -0.12778215221924      0.36700591500219
  H           5.18346990219342      1.78381145022101     -0.70742497165672
  H           2.73351482461249      1.75399480705890     -0.97322290875182
  H          -4.23877447508149     -1.03013756586361      2.26292128725535
