19
Coordinates from ORCA-job geoopt E -348.867011787708
  C          -2.46339087819373      1.15025518775148     -0.38843708629426
  C          -1.72551226621397     -0.10041290625076      0.00663453969931
  C          -2.39477518283660     -1.20556694854089      0.36630090800168
  C          -0.24275470819369     -0.05144336512671      0.00153123886213
  C           0.43516738963166      1.16678626067267      0.16212713045838
  C           1.82652465590482      1.21621329917199      0.17578548431676
  C           2.57358727465265      0.05306173850362      0.01433525418155
  C           1.91407255661067     -1.16228346379482     -0.16628770900478
  C           0.52575931936845     -1.21373383207700     -0.17675954379324
  H          -2.09392919627453      1.54619257556217     -1.34143197599659
  H          -3.53426443143402      0.95262434515238     -0.47903173945358
  H          -2.33095308459565      1.94248899811387      0.35814917111004
  H          -1.89023163380141     -2.10627823074558      0.70356831001911
  H          -3.48105489101905     -1.22390440252793      0.34898382143075
  H          -0.12512501084974      2.08738874253351      0.29243847343537
  H           2.32723180426405      2.17101860726335      0.31117512954795
  H           3.65916388161075      0.09255342409397      0.01807213962196
  H           2.48556897581944     -2.07473433848830     -0.31315973518503
  H           0.03162391954992     -2.16564883336703     -0.34818438605751
