8
Coordinates from ORCA-job geoopt E -229.064888415907
  C          -1.44646344766242      0.05025670464276      0.00025760236645
  C           0.03876814686817     -0.08474995542650      0.00042815244455
  O           0.65678687413452     -1.13631834807065      0.00018759205742
  O           0.66147577173731      1.11671487310072     -0.00001210512804
  H          -1.76346910302077      0.62668789726414      0.87527516493218
  H          -1.76327554515766      0.60627028115564     -0.88813344628337
  H          -1.91361380927188     -0.93390868200279      0.01087891555258
  H           1.62249457527274      0.96368429493669     -0.00112733404177
