21
Coordinates from ORCA-job geoopt E -635.161004486068
  C          -3.53703693837978     -0.94493584782679      0.24194381613143
  C          -2.20321642446690     -0.27731138062129      0.57396708265032
  C          -1.54525259163752      0.28812986611006     -0.67923857450184
  S           0.06412891286031      1.12938441055130     -0.38933689123253
  C           1.12686374920011     -0.32199876197038      0.00817657799242
  C           2.59023693407138      0.09847407224223      0.08210245908455
  C           3.48638245357281     -1.08632522982411      0.43756385009478
  H          -4.23231313777784     -0.23057838964829     -0.21403990722611
  H          -3.39844796872230     -1.77379935853333     -0.46170554237140
  H          -4.01108061732507     -1.34659084994646      1.14371696038107
  H          -1.53472969756562     -1.00695557980865      1.04661073644686
  H          -2.35696915875107      0.53206628293905      1.29802251548958
  H          -1.38842759230762     -0.50023605510978     -1.42655656581887
  H          -2.19051672985849      1.04816608060209     -1.13664816244977
  H           0.98265567726925     -1.07588203960091     -0.77578501054407
  H           0.81159687205047     -0.75428360599975      0.96449830825419
  H           2.89965740796666      0.52371224371032     -0.88081262738490
  H           2.70916893688659      0.88961037085719      0.83368283327149
  H           4.53729362597734     -0.78248191891139      0.48522850007355
  H           3.21374540507549     -1.50833441870627      1.41146049424568
  H           3.40018834576181     -1.88261098120484     -0.31048386478642
