15
Coordinates from ORCA-job geoopt E -420.737946316949
  C          -0.15966610789677     -1.34784076131191      0.00001892858405
  C           1.21732472415141     -1.21459552133414      0.00001190580426
  C           1.77681126967263      0.06785682672699     -0.00001232853726
  C           0.96103866227716      1.20986267406920     -0.00002453279160
  C          -0.40974639611987      1.06394164323969     -0.00001985652419
  C          -0.99036557082583     -0.21713739475798      0.00000150499961
  C          -2.43089259716477     -0.40585533924497     -0.00000196443893
  O          -3.26449800086494      0.50141455085526     -0.00004173122015
  O           3.12123089931163      0.27233319384783     -0.00002498218817
  H          -0.60666293278081     -2.33934693923829      0.00003816301304
  H           1.86539463218035     -2.08706205390749      0.00002354632787
  H           1.42448736507161      2.19179520639164     -0.00003788962723
  H          -1.05069989832740      1.94097789602435     -0.00002961337264
  H          -2.76458337798451     -1.46317607715292      0.00002558112895
  H           3.58434413330012     -0.57890195270729     -0.00002172245760
