13
Coordinates from ORCA-job geoopt E -232.403198891483
  C          -2.39430996785040     -0.09645076026080      0.00008693777461
  C          -0.91627030516627     -0.47493266207742     -0.00010123811853
  C          -0.01789503380930      0.75337657792679     -0.00000727589311
  C           1.44544748526398      0.48309399638151      0.00001161780726
  O           1.94990699648134     -0.63012794023506     -0.00016536248081
  H          -2.64836877900612      0.49771286382173      0.88541890564397
  H          -2.64854221697786      0.49792177285521     -0.88505514814389
  H          -3.03037418075062     -0.98765391049036      0.00004354008500
  H          -0.68721068406607     -1.08958013552058     -0.87926139726190
  H          -0.68704698442823     -1.08984322239882      0.87883243691801
  H          -0.21245946388121      1.40288119777929     -0.86926313781762
  H          -0.21253992028314      1.40283563983741      0.86926312020232
  H           2.09569626507390      1.38270308928110      0.00018055858468
