24
Coordinates from ORCA-job geoopt E -683.961618883857
  C           4.51919047038225     -0.22418479222889     -0.03177890307678
  N           3.07859001210331     -0.47573853819309     -0.09621036665545
  C           2.68717477995576     -1.86073020649160     -0.36063785231610
  C           2.23578339182747      0.56852920782214     -0.10936664408467
  O           2.62493684570582      1.75487036034754     -0.09952776632319
  C           0.75865068015419      0.31056278823607     -0.09377531908187
  C           0.16306907254263     -0.41729769519599      0.94042179429056
  C          -1.21584216539342     -0.54765237611039      0.99723493245078
  C          -1.97995555381374      0.04751173420579     -0.00110622744080
  C          -1.41146803637546      0.77678958608280     -1.04139313469918
  C          -0.03358740033426      0.91613493209707     -1.07309394476905
  N          -3.43568893554847     -0.09708258168442      0.04482041892191
  O          -4.10219906992070      0.43014440586046     -0.84436805665232
  O          -3.92952767747639     -0.73946949049103      0.97026680904992
  H           5.00719756861941     -1.10974531476064      0.38311698694677
  H           4.72534364700395      0.63288994188005      0.61163654971546
  H           4.93117422502574     -0.02848472936662     -1.02977521044029
  H           3.29450021716061     -2.24837912118668     -1.18655798135844
  H           1.63878780238500     -1.92225703298157     -0.65117430844015
  H           2.85533637756892     -2.48825560882343      0.52161107691081
  H           0.77667610759686     -0.87825204560751      1.70837501023364
  H          -1.68802830576853     -1.10214114535064      1.79914852771093
  H          -2.03394893480909      1.22770169080677     -1.80476372370508
  H           0.43406847720809      1.49168723123384     -1.86581513318741
