20
Coordinates from ORCA-job geoopt E -2810.538424839770
  C          -5.39135249457734     -0.85555738398819      0.18776438989164
  C          -4.20599191806536     -0.29503106169824     -0.59356244826769
  C          -2.87995367029133     -0.47392581541271      0.14363297903485
  C          -1.68766609769108      0.08385496711376     -0.63245283337245
  C          -0.36506859151791     -0.10997960072365      0.11815644243682
  C           0.77879059133906      0.45523980903589     -0.69002105366530
  Br          2.52835410216588      0.21365470646548      0.24742716680834
  H          -5.49177081789109     -0.35809296719030      1.15966154616308
  H          -5.26644321815452     -1.92864909249400      0.37494021454912
  H          -6.33215776097805     -0.71864312754852     -0.35642892422990
  H          -4.14354463034500     -0.78795426182230     -1.57353145006761
  H          -4.36736899148417      0.77332231919915     -0.79307286970057
  H          -2.71632244203323     -1.54290015013684      0.34250285289897
  H          -2.93941084639084      0.02029074208434      1.12403211474650
  H          -1.84518833841496      1.15410197397715     -0.82563987344607
  H          -1.62676909730721     -0.40920599745882     -1.61263265334186
  H          -0.19922617447669     -1.17800803179607      0.30365413063252
  H          -0.41661335815651      0.38966571609528      1.09300317971665
  H           0.90584704184089     -0.05030371450967     -1.64829011763536
  H           0.69256474402945      1.53173133440824     -0.84453651455167
