13
Coordinates from ORCA-job geoopt E -232.404104470010
  C           0.90823967134515      1.27755516969044      0.06463282888777
  C           0.48867200244200     -0.10485086005214     -0.41146309769010
  C           1.32605389988549     -1.23135657967042      0.21825998500929
  C          -0.95823776269527     -0.39987767540354     -0.16398679754205
  O          -1.74812961608850      0.35867081499295      0.37572343735732
  H           0.30670351989579      2.06242231463190     -0.40428576049738
  H           1.95905500751252      1.45741224445306     -0.18200482543290
  H           0.79382169691612      1.36475348042289      1.15063462936778
  H           0.60488129929983     -0.18391304754995     -1.50585516450595
  H           2.37939821825590     -1.10042823820480     -0.04597932876939
  H           1.00507388435476     -2.21711656889371     -0.13408047866077
  H           1.23879565060622     -1.20814598620776      1.31010503071496
  H          -1.29885882663002     -1.40105111440892     -0.50471400693860
