14
Coordinates from ORCA-job geoopt E -344.754576010863
  C           1.12710168742699     -0.76647502851452      0.50849447549736
  C          -0.00535371690330     -0.09436023855409     -0.25064115313658
  C          -1.34710872373380     -0.35859627128411      0.41360941567971
  O          -2.43201718912846      0.22347335429728     -0.31989187047628
  O           0.23416130946288      1.32283894387706     -0.36727081744630
  O           2.39225641331850     -0.57233506114140     -0.13604602782162
  H           0.95696237190856     -1.84745906067077      0.54921030030833
  H           1.15789394627926     -0.38118625197196      1.54043654156559
  H          -0.02740595690531     -0.46649153590123     -1.28305946042132
  H          -1.32947302415342      0.02757148328748      1.44545914790092
  H          -1.53586541837796     -1.43655540304393      0.45236652383261
  H          -2.25411104553979      1.17251597038843     -0.37444992139745
  H           0.26250882518515      1.68689225307068      0.53058145792135
  H           2.52574352686070      0.38307772006110     -0.20566546110633
