10
Coordinates from ORCA-job geoopt E -876.140152363584
  C          -1.81947734819885     -0.83961024716938      0.46229335514360
  S          -0.93816320918266      0.49415523153579     -0.44169549472552
  S           0.93755004006746      0.49520700784056      0.44052406578948
  C           1.82011909813543     -0.83803481151206     -0.46302099863121
  H          -1.32240166116048     -1.80070612298449      0.31040081032959
  H          -2.82744216113026     -0.88530879821992      0.03513158314496
  H          -1.88619662571652     -0.60351783435074      1.52662617428471
  H           1.88663878071281     -0.60223298417343     -1.52742994493153
  H           1.32395898149111     -1.79955425228043     -0.31082112101841
  H           2.82812151298197     -0.88263539978590     -0.03582421168567
