10
Coordinates from ORCA-job geoopt E -193.103456245253
  C           1.48155811970245      0.57986990206074     -0.00012731354592
  C           0.66898492697934     -0.70338402892874     -0.00026404827481
  C          -0.80774167472219     -0.51569934160051      0.00024216283881
  O          -1.37186096112904      0.56821739326692      0.00075075210255
  H           2.55128508813619      0.35303250230341     -0.00046976403551
  H           1.26180641514629      1.18472677140541      0.88508102501330
  H           1.26133488642777      1.18519995343379     -0.88489452923847
  H           0.89655636189683     -1.34049186944629     -0.86927026359556
  H           0.89709793849930     -1.34105154195491      0.86818868842839
  H          -1.40691464623694     -1.44985727963982      0.00019482600723
