20
Coordinates from ORCA-job geoopt E -366.115781156475
  C          -2.33106221205538     -1.22265378142054     -0.06789159592508
  N          -1.62201843227200      0.00030372352754      0.31638263193246
  C          -2.33076227206560      1.22269601259726     -0.07049790916164
  C          -0.23585241089401      0.00008023928984      0.15648583203334
  C           0.49525278942082      1.20639385779237      0.09072681449016
  C           1.88212328778924      1.19611187393023     -0.00451263510417
  C           2.59475824232361     -0.00008227754052     -0.05215063230793
  C           1.88187103902339     -1.19615483247898     -0.00620865004672
  C           0.49496068653952     -1.20628898686358      0.08901933129374
  H          -3.40054336174805     -1.07195227811793      0.09226203293954
  H          -2.02761879578063     -2.06870417705329      0.55442043772077
  H          -2.17002413297728     -1.48908091886462     -1.12525860526328
  H          -2.16783689090289      1.48786737232297     -1.12787285850598
  H          -2.02874860013780      2.06961544330004      0.55133212830857
  H          -3.40048748894362      1.07186961568401      0.08784931467610
  H          -0.01354878719749      2.16244781408529      0.11787567420864
  H           2.40969941599539      2.14561258668574     -0.04997199674521
  H           3.67757431848444     -0.00014124612772     -0.13130080397367
  H           2.40922349804394     -2.14571007293686     -0.05310844801972
  H          -0.01399878144559     -2.16229387691124      0.11455600005009
