23
Coordinates from ORCA-job geoopt E -425.550721778217
  C           3.93831990715353     -1.17345861384265      0.24397685212191
  C           2.89309717164866     -0.15038925431077     -0.19003623299925
  C           1.49800075311020     -0.54807216816376      0.27559034891270
  C           0.42465318682791      0.42574575171240     -0.12100254617145
  O           0.60091876387181      1.45041319789243     -0.76181690456103
  O          -0.78316961862580      0.03450101079875      0.31883171945811
  C          -1.91517612664737      0.90109044068276     -0.00518965211271
  C          -3.16336064729083      0.24989482308995      0.54586939894258
  C          -3.48534000067423     -1.09185369211966     -0.10591700977592
  H           3.71825303196360     -2.16308568121824     -0.17266225146527
  H           4.93801531744380     -0.88162928655266     -0.09368462254203
  H           3.96683049499176     -1.26901437679843      1.33551852073358
  H           2.89742627101069     -0.05173168307875     -1.28213792909250
  H           3.14435460996521      0.83641201747482      0.21691829332909
  H           1.46319296058203     -0.65163490792608      1.36852139744385
  H           1.21580512231124     -1.53127140097613     -0.12499672786759
  H          -1.96602350145720      1.01110502981718     -1.09462413417741
  H          -1.73678407870716      1.88365215651233      0.44444938835184
  H          -3.06300267950823      0.13696606454547      1.63270940924623
  H          -3.98606012673528      0.95598649298338      0.37707264136819
  H          -2.69899908438101     -1.82930926312412      0.08491660153171
  H          -4.42399588433033     -1.49838845114980      0.28376051999443
  H          -3.58970670052302     -0.98276039734839     -1.19158384836905
