17
Coordinates from ORCA-job geoopt E -197.689844395928
  C          -2.54260286909122      0.33247934558151      0.00000908836434
  C          -1.27646846832568     -0.52017136826467      0.00002100289034
  C           0.00000193523844      0.31929122555941      0.00002494459941
  C           1.27646264398865     -0.52018791426201     -0.00006692256488
  C           2.54260609624682      0.33244882980344     -0.00001351508031
  H          -2.58038016341455      0.97878687163032     -0.88495031427682
  H          -2.58042424466990      0.97874297267018      0.88499908033801
  H          -3.44600879182915     -0.28721027142805     -0.00002837595973
  H          -1.27529597590501     -1.17871542099405      0.87973400122974
  H          -1.27529452230171     -1.17874986557723     -0.87966606116403
  H           0.00003457207890      0.97910931936377      0.88039033555966
  H          -0.00002037097480      0.97920886539916     -0.88026677171377
  H           1.27529111344250     -1.17882095656671      0.87957971969781
  H           1.27525982791439     -1.17867147425921     -0.87982437832028
  H           3.44600218354610     -0.28725597874747      0.00002766953968
  H           2.58037661208892      0.97874390025457      0.88495456490540
  H           2.58046293986727      0.97871191463705     -0.88500237464456
