15
Coordinates from ORCA-job geoopt E -233.612329425462
  C          -1.72715003158386     -0.83746817082165      0.00099393208208
  C          -0.49970675971391      0.00028788944290     -0.35906206261614
  C          -0.68066078172132      1.45097024253046      0.08706871086877
  C           0.73704073852741     -0.63148394696010      0.27430603520687
  O           1.96886077777718      0.01885258717490     -0.09108126560233
  H          -1.61367678134565     -1.87742421368750     -0.32597240783555
  H          -2.62813594278676     -0.43113619394331     -0.47054514357635
  H          -1.88980337712586     -0.83959753372837      1.08613986062110
  H          -0.36442054656350     -0.02224278367140     -1.45063695271171
  H          -0.78701701036003      1.50692629325788      1.17824357754153
  H          -1.58086523790385      1.88556664651948     -0.36116841999995
  H           0.16634126164559      2.08211512621815     -0.20573268497520
  H           0.62669685974135     -0.64139239355786      1.37064992279361
  H           0.84004992241850     -1.66896551935812     -0.06342112698036
  H           1.97404552589472      0.89063243048455      0.32349787948364
