22
Coordinates from ORCA-job geoopt E -387.400444050710
  C           3.50924698424252      0.99108629299826      0.34928742177419
  C           2.72894852864771     -0.05961307813820     -0.40558393129117
  O           1.41705859658328     -0.15537726142423      0.16681069489838
  C           0.62216758352863     -1.14421481105880     -0.48974437527370
  C          -0.75149712686612     -1.16549551389052      0.12338948833281
  O          -1.42268420475760      0.05841860390905     -0.18012084184870
  C          -2.73007764314617      0.11061767424109      0.40774503686066
  C          -3.37068564379497      1.42883106182623      0.04095072357736
  H           4.51417891631174      1.08063837663395     -0.07538397510854
  H           3.01980530017296      1.96808459908572      0.27897770114529
  H           3.60694444927584      0.72267718882441      1.40635587921701
  H           3.22812580152737     -1.04000931671894     -0.34194502110800
  H           2.64439204411509      0.20509253352216     -1.47170453247609
  H           0.55503070941269     -0.92202198822013     -1.56731415507811
  H           1.07842839935092     -2.14071766914173     -0.37461871472856
  H          -0.67954728218522     -1.29751578168419      1.21536744876273
  H          -1.31109190349030     -2.02125486305096     -0.28760510969148
  H          -3.33174903048960     -0.73503926779086      0.03729738890092
  H          -2.64406377450069      0.00747026778606      1.50126871232964
  H          -3.46968311952782      1.52788289011144     -1.04500888377750
  H          -4.37034777391095      1.48917014470149      0.48286248371184
  H          -2.77886767439931      2.26964578467870      0.41755599007101
