20
Coordinates from ORCA-job geoopt E -236.989974366123
  C           3.20241856143523      0.22015852658017     -0.00001497083023
  C           1.88199280482561     -0.54578513709342     -0.00002677932009
  C           0.66420645736180      0.37696033015812      0.00001066533699
  C          -0.66420742765802     -0.37696796937833      0.00003126704906
  C          -1.88199133870185      0.54578141158085      0.00002266934378
  C          -3.20241853979584     -0.22015957497678     -0.00006518733433
  H           3.28363750852336      0.86245855267393     -0.88498357266115
  H           4.06204853492116     -0.45894813436427     -0.00013156242030
  H           3.28373344686993      0.86227544089475      0.88507740748692
  H           1.83702425817214     -1.20284949859960      0.87963847457847
  H           1.83700873224289     -1.20280138505556     -0.87972703910516
  H           0.70921969002130      1.03498393516897     -0.88041592207437
  H           0.70926282823329      1.03497847378122      0.88043908675318
  H          -0.70923839085500     -1.03497527561693      0.88046858082747
  H          -0.70924787601931     -1.03499551923359     -0.88039107617947
  H          -1.83704979165074      1.20278173104579      0.87973705918757
  H          -1.83697413974796      1.20285916860838     -0.87963001707624
  H          -3.28364371421141     -0.86233263392782     -0.88512541441481
  H          -3.28372264330176     -0.86240924398219      0.88493218689185
  H          -4.06204981296482      0.45894510783628     -0.00007316313912
