15
Coordinates from ORCA-job geoopt E -731.072517980242
  C          -2.68888566907717      0.00371514654020      0.40803495504667
  C          -2.02610724113251      1.20862783602854      0.18053192837670
  C          -0.70782891259739      1.20559342916969     -0.26397307147904
  C          -0.04175566300663     -0.00310424984467     -0.48650694286701
  C          -0.71154831284702     -1.20832913976130     -0.25655625755867
  C          -2.02985506633843     -1.20459311731251      0.18792141567838
  C           1.36910989921833     -0.00681019696995     -0.96055799001284
  Cl          2.54586785351084     -0.00248561414041      0.48483094486916
  H          -3.71911326927016      0.00637483327552      0.75270625219427
  H          -2.53893824513454      2.15189767634272      0.34604678484544
  H          -0.18897917097855      2.14419969479138     -0.44391324594816
  H          -0.19558662501001     -2.14961090044689     -0.43071747072695
  H          -2.54557505668371     -2.14525540417950      0.35919958839212
  H           1.62125139833720      0.88742109955615     -1.53164365965691
  H           1.61888544130976     -0.90628407754898     -1.52439763665316
