22
Coordinates from ORCA-job geoopt E -463.190779987360
  C          -3.55071700273562     -0.00002054455255     -0.00004122060139
  C          -2.84857473537578     -1.14262782827838     -0.37800095943432
  C          -1.45760641871487     -1.14398332683014     -0.37791715956276
  C          -0.73978831391814     -0.00001751152494     -0.00004832587918
  C          -1.45760697844988      1.14394676128289      0.37782395613245
  C          -2.84857526941884      1.14258826012277      0.37791483477715
  C           0.73979233697508     -0.00001577283681     -0.00005250544373
  C           1.45761325559352     -1.14391890953211      0.37800130179890
  C           2.84858146188069     -1.14256049549294      0.37808454990730
  C           3.55072127035702     -0.00001296083068     -0.00006014207923
  C           2.84857699944426      1.14253302899271     -0.37820090955246
  C           1.45760861307084      1.14388867142941     -0.37811006981463
  H          -4.63702154261980     -0.00002167933549     -0.00003850810065
  H          -3.38636032277913     -2.03622714498898     -0.68284480050341
  H          -0.92228163163987     -2.03472568301142     -0.69551737546562
  H          -0.92228242845956      2.03469023512075      0.69542141917484
  H          -3.38636114767181      2.03618645387126      0.68276138688406
  H           0.92229096517412     -2.03461110305805      0.69574633770356
  H           3.38636923552238     -2.03610982255426      0.68307125654938
  H           4.63702583694968     -0.00001176624760     -0.00006197395228
  H           3.38636097309601      2.03608345119395     -0.68319102527799
  H           0.92228342791970      2.03457987026062     -0.69585265806000
