40
Coordinates from ORCA-job geoopt E -1307.419419317897
  C          -4.02194354731648     -2.15990307429304      2.45325652766521
  C          -3.36144000126066     -0.87335007421474      1.96626121020880
  C          -2.46535703672416     -1.16942387441271      0.76227262812586
  N          -1.72494691473342      0.02110781634633      0.32621530375462
  C          -2.52151399104713      1.21775977946051     -0.00718281001149
  C          -3.58667168741803      0.89215450310047     -1.02632813841523
  C          -3.93031346119821      1.94951214947649     -2.04074435684935
  C          -3.17776473495618      0.71395721750695     -2.46020493893555
  C          -0.38004646352295      0.00563955576319      0.16886991448830
  C           0.34172266090878     -1.12382947653264     -0.31845816074617
  C           1.72093124809430     -1.16292701374894     -0.42965259764244
  C           2.46790383521872     -0.02797067972486     -0.14306897242460
  C           1.82799518974390      1.12186649927258      0.29971755666138
  C           0.45558484970702      1.11791424768149      0.48424680606261
  N          -0.05522606768806      2.27042872083892      1.22712972852955
  O          -0.87892519110573      2.07267530158510      2.11692288109573
  O           0.41763358792157      3.37536641926769      0.96539259768394
  C           3.95944391794014     -0.06244670132099     -0.26364330160445
  F           4.55390040769117     -0.50745330056681      0.87787449722026
  F           4.37107357524580     -0.88731403864791     -1.25390278936034
  F           4.47792852239935      1.16026489214423     -0.51490126517814
  N          -0.34411331944146     -2.25389976416739     -0.94460436145609
  O           0.12953701418647     -3.37661066849232     -0.77688248791668
  O          -1.31540947468441     -2.01988399038955     -1.65934539922649
  H          -4.67394980399149     -1.96095452989579      3.30935348794820
  H          -4.63300784964042     -2.61178309590999      1.66360338773678
  H          -3.27268130957182     -2.89691646887595      2.76355804651105
  H          -2.75733879823315     -0.42689818050411      2.76579313845948
  H          -4.13488578087679     -0.14560474484963      1.69664599574556
  H          -1.73919691064018     -1.93231504793928      1.06283222982030
  H          -3.06594855134496     -1.58282370942837     -0.05942347335027
  H          -2.96659309638544      1.65443164214847      0.89550018858772
  H          -1.85200999205609      1.96313647559037     -0.44767301233738
  H          -4.41416975210041      0.28260354757236     -0.67188823371531
  H          -4.97097183134673      2.04014226661028     -2.33645314179150
  H          -3.37953086327514      2.88525621262843     -1.99777448515591
  H          -3.70159636150436     -0.03161577794733     -3.05060759152562
  H          -2.12019322287310      0.82421412019141     -2.68736819248547
  H           2.19336264014829     -2.05930379895787     -0.81711774584722
  H           2.39377580433149      2.00482857103493      0.57690237077035
