34
Coordinates from ORCA-job geoopt E -507.518479403014
  C          -6.79479269426373     -0.26876685127704     -0.02057257243094
  C          -5.49830435573586      0.53200999173458      0.06774966325304
  C          -4.25297406613986     -0.34748979584499     -0.03389833678964
  C          -2.94820978072891      0.44240742724078      0.05008815352083
  C          -1.70359075943366     -0.43867919417781     -0.04327720509501
  C          -0.39944662132155      0.35324274546941      0.03274067358616
  C           0.84434689726290     -0.52954061245122     -0.04989916526196
  C           2.14482499570020      0.26933367643646      0.01526506021422
  C           3.37311356678915     -0.62592334997194     -0.06044735184846
  C           4.69505473025219      0.08925268650789     -0.00379899919241
  O           4.77494665984349      1.31481834389250     -0.03015791033315
  C           5.92015378318287     -0.77004061021459      0.10911622035646
  H          -6.85373959872647     -1.01042605178302      0.78490164465362
  H          -7.67473604349912      0.37918155286599      0.05713532794325
  H          -6.85962355546760     -0.80750695843955     -0.97338573366139
  H          -5.47163698611842      1.08686836156942      1.01588927450129
  H          -5.47491012633261      1.28489718293461     -0.73239044655353
  H          -4.27537064914038     -1.09980188863612      0.76843021052547
  H          -4.28050626678401     -0.90524048583017     -0.98168170699369
  H          -2.92455848894599      1.19064496098752     -0.75584325077883
  H          -2.92437306071674      1.00443952995259      0.99531198255915
  H          -1.72953910539308     -1.00538166027061     -0.98562693551131
  H          -1.72416052840069     -1.18288063303142      0.76643379972016
  H          -0.37500327936247      1.09191037220790     -0.78180048164053
  H          -0.37587756337921      0.92575858940029      0.97155735602358
  H           0.81949603815799     -1.10783821747000     -0.98500261221569
  H           0.82534122968332     -1.26282391524894      0.76939613594901
  H           2.17412616814756      0.85027600488988      0.94678032576017
  H           2.17061269131695      0.99619426776396     -0.80674883294979
  H           3.37153783823827     -1.38081445785953      0.73993630137016
  H           3.37737021459247     -1.20993740116478     -0.99425337283019
  H           5.82475531657740     -1.67984338967689     -0.49128670071785
  H           6.01535702906345     -1.08596282588441      1.15643954914739
  H           6.81629717698217     -0.21275585802076     -0.17167869637958
