22
Coordinates from ORCA-job geoopt E -5058.957257901854
  C           0.74123597581472      0.00000648277917      0.00000521188436
  C           1.44941139244124      0.84945603203702      0.84955944603888
  C           2.84567885003634      0.85807561455906      0.85819412662801
  C           3.54267862623758      0.00004058087966      0.00005213939678
  C           2.84572896795379     -0.85801255297476     -0.85811336307233
  C           1.44946033164757     -0.84942607221027     -0.84952636167315
  Cl          0.56039179394997     -1.90211066801506     -1.90233294836081
  Cl          3.70536981241539     -1.91766621201926     -1.91789960976194
  Cl          5.27029218246961      0.00006148551804      0.00008127835003
  Cl          3.70525799834347      1.91774864632501      1.91801040166883
  Cl          0.56028240196970      1.90211781403504      1.90233692656904
  C          -0.74123184133665     -0.00001327466498     -0.00002003995062
  C          -1.44943501031631     -0.84949185487531      0.84948284601339
  C          -2.84570325954638     -0.85811879470383      0.85806411904297
  C          -3.54267439560895     -0.00005971383347     -0.00007747074989
  C          -2.84569625372217      0.85802253965556     -0.85818965956767
  C          -1.44942867140942      0.84944378180994     -0.84954900587149
  Cl         -0.56032595795036      1.90216248977390     -1.90229183604723
  Cl         -3.70530171769806      1.91770158399059     -1.91797864998264
  Cl         -5.27028790793052     -0.00009094815479     -0.00011564013358
  Cl         -3.70531745713469     -1.91782717788089      1.91781710079769
  Cl         -0.56034006952588     -1.90218142853036      1.90226195478138
