17
Coordinates from ORCA-job geoopt E -326.833645574135
  C           2.75057551921053     -0.03569299269994      0.73104905735202
  C           1.94598386542463      0.09668791096490     -0.56834921841107
  C           0.46717429793266      0.02350008700072     -0.31014249934661
  C          -0.21054643683078     -1.19658585032812     -0.38459767922246
  C          -1.56779277410424     -1.24260693178878     -0.09672078230504
  C          -2.21653904973297     -0.06437516881779      0.25914585721955
  C          -1.46970968368504      1.10474658857634      0.30849312519262
  N          -0.15792212557730      1.16467271361359      0.03359235870811
  H           2.49800456698621      0.76658278099892      1.43231793051304
  H           3.82470090678070      0.01718827505144      0.52584148358261
  H           2.54326174097867     -0.99355883319503      1.22067173582035
  H           2.23272913439519     -0.70593563506121     -1.25682056705757
  H           2.18112932194386      1.05183712535064     -1.05047613833841
  H           0.32893912003408     -2.09606872690303     -0.66865784491644
  H          -2.11203868685277     -2.18135185704797     -0.15214238472684
  H          -3.27699452715974     -0.04799765230796      0.49032443381179
  H          -1.94633838624372      2.04592565309327      0.57939287262435
