40
Coordinates from ORCA-job geoopt E -2497.210135244452
  C          -0.05388474276401     -3.58482742782543      1.03601113866925
  C          -0.70904881224146     -2.33202807018360      1.55516840328848
  O          -1.29211980348698     -1.62604447688562      0.40488928533850
  P          -2.34990998332348     -0.43921110881628      0.64587752467547
  S          -3.85112978762231     -0.78620995730424      1.82965823577906
  O          -2.62910676904173     -0.16090313781786     -0.90829278722574
  C          -3.58296642879652      0.88585974838347     -1.30565520991453
  C          -3.37712278425309      1.13544099703976     -2.77661890217762
  S          -1.29746235096976      1.23220520910161      1.40162727022285
  C          -0.09726161914712      1.58869194480656     -0.00759099971979
  H          -0.68175245388398      1.61009338199445     -0.93316589132043
  C           0.46988693392130      2.97059778728999      0.28091744687977
  Cl          1.59969920514052      3.45255413244348     -1.06849537683938
  N           0.89961050365996      0.56294443828989     -0.16289677632276
  C           1.82278424699658      0.16471418455009      0.81770133063632
  O           1.96527710354958      0.70497624773791      1.89963729423551
  C           2.53210639840641     -1.00465360886236      0.25581422262808
  C           3.51446846873416     -1.80100646204958      0.81454776247585
  C           3.98177158197678     -2.87049591502985      0.04509377951734
  C           3.47816685020299     -3.11762809338979     -1.23384476443174
  C           2.48354723738990     -2.30796785260031     -1.78938013795456
  C           2.02350696220515     -1.25686425728390     -1.01779097248441
  C           0.96558874675786     -0.26649437607842     -1.30004804508274
  O           0.27137970789589     -0.14254836390926     -2.29137216960151
  H           0.40982161380350     -4.11057912315067      1.87706176509988
  H          -0.79114832555098     -4.25019193664103      0.57671090859492
  H           0.72509670479897     -3.35435739944487      0.30330484533948
  H           0.01217260328951     -1.66085806902601      2.03576822219939
  H          -1.51069059890394     -2.56343513245026      2.26479418407428
  H          -4.59129144113895      0.52106381502804     -1.08594214794482
  H          -3.38800259959949      1.78718371607945     -0.71274121930919
  H          -2.36516832031503      1.50207337179121     -2.97471563759618
  H          -3.54813605101584      0.22350436918847     -3.35654409535459
  H          -4.09201795150180      1.89504935497454     -3.10877287021516
  H          -0.33618087382420      3.70619534913740      0.30063093655678
  H           1.04660844384944      3.00812683989460      1.20558333843285
  H           3.90325529598043     -1.60755289996084      1.80959498183335
  H           4.75029557309596     -3.52259518359349      0.44868567636301
  H           3.86371287552482     -3.95725495219645     -1.80400749931432
  H           2.08252582540095     -2.50191697583079     -2.77943840683095
