22
Coordinates from ORCA-job geoopt E -2301.500006877104
  C          -5.07637678793834     -0.71895214047106      0.04745311204172
  C          -4.31376434362584     -1.36319735280372     -0.92309734871182
  C          -2.92983015972456     -1.21579703056394     -0.93591000509705
  C          -2.29826527490700     -0.41090646218703      0.01724789036302
  C          -3.06801792289408      0.23035966133975      0.99371046179132
  C          -4.44936098719616      0.07284786568500      1.00799606647943
  C          -0.82061744575359     -0.29851355866319      0.01270390967457
  C          -0.06431876278222     -1.46777242105099      0.09283871095244
  C           1.32001620956736     -1.42769985995642      0.10213246611725
  C           1.99839733818337     -0.20956762030118      0.03235006895234
  C           1.25493543196967      0.97334891791693     -0.06480718466177
  C          -0.14362862083764      0.92422856651788     -0.07914745415074
  Cl         -1.04171399727386      2.40403816678039     -0.28233959989241
  Cl          2.07926367309606      2.49392246020418     -0.18263099777392
  Cl          3.72956033449233     -0.16037958447417      0.06049748948782
  Cl          2.19990522257296     -2.92674881541050      0.21733674300958
  H          -6.15622648100116     -0.83615210281993      0.05908214425479
  H          -4.79530072975204     -1.98295943894214     -1.67399451440975
  H          -2.33405287784507     -1.71630905403963     -1.69460736536507
  H          -2.58364979889885      0.83691299127196      1.75336625738019
  H          -5.03782969465732      0.56700143115698      1.77573568333174
  H          -0.57384495779403     -2.42264481358915      0.16600592672634
