21
Coordinates from ORCA-job geoopt E -536.422983983660
  C          -3.60123356043839      0.08237473198382      0.00043163671162
  O          -2.32562335281609      0.74167340319776      0.00007664192041
  C          -1.20717454620949     -0.05272962239279      0.00000215892808
  C          -1.20365316657492     -1.44763527027214     -0.00006170773321
  C           0.01810415176004     -2.11599874518453     -0.00009299520100
  C           1.22589041107314     -1.42268629925473     -0.00004626303904
  C           1.21457308524836     -0.02573567096907      0.00001294599912
  C          -0.00378161033289      0.66090322059742      0.00002600836365
  O           0.01294121236597      2.03678719371949      0.00011033497886
  O           2.32996923281686      0.77122793272611      0.00010427323008
  C           3.60321847769709      0.10841156986440      0.00033823282516
  H          -3.72168167260110     -0.53424512712220      0.89845530849525
  H          -3.72216643824418     -0.53428578489030     -0.89749903818308
  H          -4.34543233867152      0.87998497762943      0.00060853771639
  H          -2.13161641877100     -2.00706336691744     -0.00007520417382
  H           0.02966681828687     -3.20165138508861     -0.00013517761070
  H           2.16174827727688     -1.96836871466922     -0.00005247749914
  H          -0.90710140584507      2.34214136966835      0.00015479234927
  H           3.72604629614470     -0.50882838332810     -0.89729689889921
  H           3.72575123910800     -0.50875419287163      0.89806473138367
  H           4.34907155982676      0.90474981367398      0.00042594973763
