21
Coordinates from ORCA-job geoopt E -350.092777317632
  C          -3.19260577462698     -0.00244234790642     -0.84085084507584
  C          -2.46713200554563      0.00012060739140      0.51009189573719
  C          -0.96950525978575      0.00096359346555      0.34263443556594
  C          -0.25720570982709     -1.19701366687748      0.22950457877039
  C           1.11858078516006     -1.19688601555232      0.01801882568184
  C           1.83206219127624      0.00165411931085     -0.08699308812311
  C           1.11911872525692      1.19906576081381      0.02219291471312
  C          -0.25765503106427      1.19856796495424      0.23360980481642
  C           3.32370911059129     -0.00114812688179     -0.27723369257667
  H          -2.92412812860163      0.88306530940220     -1.42777036281185
  H          -4.27921477250112     -0.00326348297864     -0.70222957229907
  H          -2.92253781279141     -0.88909107346429     -1.42532341503500
  H          -2.77076326798987     -0.88244248993799      1.08575726210673
  H          -2.77206007650803      0.88380696524875      1.08329628178448
  H          -0.78878927847231     -2.14356368542938      0.30721214458168
  H           1.64956047224136     -2.14311743605686     -0.06448986709497
  H           1.64990093416157      2.14552995148021     -0.05716881388682
  H          -0.78892167851574      2.14502742962494      0.31439285224094
  H           3.84028374234891     -0.10547007309289      0.68525861551762
  H           3.64252589855470     -0.83716288788978     -0.90759267287631
  H           3.66783544363879      0.93114372717587     -0.73460093493669
