23
Coordinates from ORCA-job geoopt E -425.550863427484
  C          -4.46241102716990     -0.20501641240732      0.14441227213223
  C          -3.17903582790933      0.29415609768588     -0.51286167420863
  C          -1.92835811877767     -0.16135621681906      0.23681905626353
  C          -0.65334573830542      0.33985034893122     -0.42827456518386
  C           0.60371550671759     -0.08165348073301      0.27800489104567
  O           0.65154326506705     -0.73834863697229      1.30620786629872
  O           1.70203901203237      0.35806342923432     -0.36265960354168
  C           2.99153366493160      0.01634203352624      0.23695110050141
  C           4.06334485603018      0.60745533333995     -0.64267304642869
  H          -4.54596584256094      0.16362953620423      1.17349143760943
  H          -5.34912537788119      0.13034971384352     -0.40407397006357
  H          -4.48510444962403     -1.30051423716998      0.17994812790244
  H          -3.13050422616527     -0.06442291349315     -1.55008923275290
  H          -3.19127714483051      1.39149092246032     -0.56316160872167
  H          -1.90927550472930     -1.25783070773193      0.28666356933040
  H          -1.96908749656002      0.20092730606904      1.27213016080028
  H          -0.64485825067790      1.43688376283125     -0.48529792013369
  H          -0.58460148859628     -0.01229989460891     -1.46618506944083
  H           3.02094527182819      0.42862221030377      1.25089893714339
  H           3.06654731399982     -1.07440753156909      0.29624414516911
  H           5.04390668125659      0.36766805682216     -0.21960127433452
  H           4.01620510132502      0.19340763672448     -1.65457740833281
  H           3.97155928759937      1.69646640172835     -0.69931510495377
