29
Coordinates from ORCA-job geoopt E -354.890330858688
  C          -5.09390738876353     -0.37639902849819     -0.00086543792528
  C          -3.82768963496712      0.47606562135824      0.00145501166474
  C          -2.55101473500681     -0.36347607929090     -0.00056248381650
  C          -1.27564983732987      0.47728271068622      0.00038559120423
  C           0.00000238541351     -0.36349030566483     -0.00007149606273
  C           1.27564488491153      0.47729939209268     -0.00068276843522
  C           2.55101150034884     -0.36345649089522      0.00043026818602
  C           3.82769094211846      0.47607948151847     -0.00103096456023
  C           5.09390140243309     -0.37639698275804      0.00101910656278
  H          -5.99715996675976      0.24351909779774      0.00133452778037
  H          -5.13221625241562     -1.01992006945839     -0.88782443399421
  H          -5.13171060838119     -1.02546756462547      0.88206906938615
  H          -3.82641226670106      1.13694436905879     -0.87650583509048
  H          -3.82657402856490      1.13240774997632      0.88280562634423
  H          -2.55186405241670     -1.02468842263803      0.87862254223045
  H          -2.55255210424955     -1.02156957546194     -0.88208117566560
  H          -1.27578246667555      1.13593672061348      0.88136185279968
  H          -1.27551238207696      1.13744257084308     -0.87946236284670
  H           0.00035581634342     -1.02281935770611      0.88038541497287
  H          -0.00033389829443     -1.02299960675709     -0.88039513652262
  H           1.27578430592346      1.13580171686672     -0.88176942007036
  H           1.27549129501622      1.13758600509453      0.87907194488372
  H           2.55210691182224     -1.02447761085539     -0.87889886040988
  H           2.55230932619905     -1.02175784617713      0.88179432336266
  H           3.82669155139093      1.13285930558612     -0.88205667581848
  H           3.82631209567961      1.13651466596688      0.87726203926055
  H           5.13201116648837     -1.02473511761694     -0.88243744794842
  H           5.13188807305975     -1.02065557328676      0.88745779591600
  H           5.99716050355456      0.24351391003115     -0.00034497688775
