12
Coordinates from ORCA-job geoopt E -1311.956246129304
  C          -2.49572383947980      0.00007925506986     -1.29274839243664
  O          -1.06801278423938     -0.00101396936998     -0.99372001996908
  C          -0.74681823490378     -0.00008933112793      0.30821835594652
  C           0.77555937402013      0.00004980987047      0.53313393164582
  Cl          1.50869138987770     -1.47895017645926     -0.16566615205747
  Cl          1.50869258176512      1.47809863400798     -0.16767469184170
  F          -1.26521054822471      1.08974433490694      0.97393876999028
  F          -1.26516004318179     -1.08908271073717      0.97543789696481
  H          -2.96532327661727      0.90226174559997     -0.89347218308351
  H          -2.96792312293481     -0.89848289219987     -0.88839619975218
  H          -2.55436519431349     -0.00292532602384     -2.38014619631861
  H           0.97315690933208      0.00078740536281      1.60760641321176
