31
Coordinates from ORCA-job geoopt E -468.218350899798
  C          -6.11617814034142     -0.41322024815392     -0.04673604450699
  C          -4.86650176122348      0.45768877110900      0.05177848035445
  C          -3.57414638910952     -0.35118718494660     -0.04823484051906
  C          -2.31516027202979      0.50866583396920      0.04610966631765
  C          -1.02442865155778     -0.30343744948936     -0.04424159408072
  C           0.23401527713420      0.55764317006479      0.04503800405797
  C           1.52070201281201     -0.26228059455687     -0.03060372863089
  C           2.76423532539891      0.61053342200712      0.05685138916319
  C           4.07374725608370     -0.12714307956139     -0.00204880054082
  O           4.13208332809650     -1.35418172427048      0.01165340763901
  C           5.31414349502215      0.71174943873980     -0.09945083537817
  H          -6.13767718387077     -1.16127682764844      0.75466599669978
  H          -6.14688442929075     -0.94967909139211     -1.00251604271117
  H          -7.03103706454040      0.18451635098946      0.03011681311003
  H          -4.87487602576484      1.00821515990827      1.00275624239649
  H          -4.88113585104171      1.21494193832570     -0.74441254608918
  H          -3.56655800653015     -0.90477262078839     -0.99878533362086
  H          -3.55886779719456     -1.10777846015076      0.75018453307597
  H          -2.32810322519810      1.26083464492876     -0.75632647134225
  H          -2.32682849505031      1.06660491630181      0.99393554443107
  H          -1.01336039613539     -0.86517589377376     -0.98972287373439
  H          -1.00940883733732     -1.05205019602355      0.76136493796925
  H           0.22043949466067      1.12612692089074      0.98634775206833
  H           0.22585782771091      1.29997000763109     -0.76621334010527
  H           1.53374553919807     -0.99974547071666      0.78220209260890
  H           1.54031039754460     -0.83200723097281     -0.96923935866660
  H           2.77553658691850      1.18566070481143      0.99607203476243
  H           2.77842526982319      1.37283996977702     -0.73627775034224
  H           6.20039808871647      0.13261587434842      0.16796491500724
  H           5.41350561038235      1.04973275234125     -1.13941020425765
  H           5.23574448371409      1.60968496000122      0.52107679166448
