23
Coordinates from ORCA-job geoopt E -388.386995868457
  C          -4.70811088073436      0.65306337225673     -0.05715353528134
  C          -3.21598910339552      0.94389641492771      0.07782016499206
  C          -2.35486495174610     -0.30455327709462     -0.10383603749562
  C          -0.85984924772582     -0.02071538545729      0.02688777481833
  C          -0.01802062691628     -1.27830551864480     -0.15155978513001
  C           1.45250496859806     -1.11479644046430     -0.04647968907874
  C           2.11874790401172      0.03243721747070      0.18620238859142
  C           3.56185035102266      0.01416560493289      0.25868048004961
  O           4.26053986625279      1.00854595755206      0.46904547094186
  H          -5.30818322893369      1.55942328582871      0.07847883027031
  H          -5.03480695382299     -0.07907556509116      0.69079265191782
  H          -4.94053468344408      0.24325380301393     -1.04719733959142
  H          -3.01302498380962      1.38163462338276      1.06497688475091
  H          -2.91839070070444      1.69861796878717     -0.66321591294358
  H          -2.64910683414204     -1.05973600082098      0.63953121874217
  H          -2.55729841667914     -0.74492134796774     -1.09103301805282
  H          -0.56391142612803      0.72860128790984     -0.72002158077283
  H          -0.65663564232176      0.42027033295191      1.01236791020518
  H          -0.22753455067587     -1.74484076903558     -1.12798108528154
  H          -0.31644829484889     -2.04699091529625      0.57972841844806
  H           2.04115885060261     -2.02609073619754     -0.17290986027094
  H           1.61506930392342      0.98665589649016      0.32488275903302
  H           4.03851040691739     -0.97684668973430      0.11083533403810
