13
Coordinates from ORCA-job geoopt E -195.214632117797
  C          -2.41628602356410      0.00409193870762     -0.00030524122652
  C          -0.98596077857696      0.53029669180232      0.00040295658704
  C           0.03402255552171     -0.62195684491829      0.00070534876840
  C           1.41154944815658     -0.15879684922371      0.00163819344687
  C           2.54670398188668      0.25383193306180     -0.00036893618219
  H          -3.13696329244720      0.82816756729661     -0.00056737047591
  H          -2.60867081206293     -0.61174190406683     -0.88631395370155
  H          -2.60947169579733     -0.61189756648735      0.88542049254804
  H          -0.81281504867495      1.15902619564666     -0.88096065186734
  H          -0.81361983403016      1.15887389214567      0.88202711889485
  H          -0.12984064448437     -1.25755696418057     -0.87966773148929
  H          -0.13138078148147     -1.25827678368017      0.88027460360560
  H           3.55200457405450      0.61206603059623     -0.00221203980802
