16
Coordinates from ORCA-job geoopt E -271.718422349290
  C           2.55703388372719      0.01879906709670      0.30076219454408
  C           1.29597596360824     -0.72920229412943     -0.10008585802362
  C           0.01062854044153     -0.01303564302540      0.22597762270460
  O           0.00379453767436      1.12240753192631      0.69277982475339
  C          -1.26634771742756     -0.76484671222536     -0.04940470319657
  C          -2.53505330636817      0.04801591444694      0.15190246366515
  H           2.62397885804196      0.98510374563774     -0.20827965697713
  H           2.58172430644564      0.20387499230689      1.37929338733192
  H           3.44324069025109     -0.56569562132520      0.03645640357871
  H           1.27901913231749     -0.92696618366163     -1.18167755032073
  H           1.24858438055168     -1.72149371142954      0.36926054010750
  H          -1.25464743372181     -1.64900352474490      0.60483257940773
  H          -1.20159739565895     -1.16703563194065     -1.06948564998460
  H          -3.41471899811813     -0.56458732410951     -0.06674349882288
  H          -2.55547918298948      0.91956669038779     -0.51000950252879
  H          -2.61904562507506      0.40532841418925      1.18266098626124
