26
Coordinates from ORCA-job geoopt E -2889.138699291608
  C          -6.86918646403965     -0.83169940221111      0.26648334216202
  C          -5.63975805754675     -0.55346759750307     -0.59435791561526
  C          -4.34454423707283     -0.53505693406857      0.21601270804996
  C          -3.10580359053534     -0.25905245268691     -0.63420153399210
  C          -1.81388851415110     -0.23648203062652      0.18057194151263
  C          -0.57692339596967      0.03718101046019     -0.67416090285230
  C           0.70956988160210      0.06193686814367      0.15931408308573
  C           1.89998882610468      0.33044034889066     -0.73045229464592
  Br          3.60321211826089      0.37546848728160      0.31643558307492
  H          -6.98393784010580     -0.06848117409869      1.04532641183649
  H          -7.78680858458326     -0.83899052384487     -0.33191374083530
  H          -6.78740044462784     -1.80500658390306      0.76476550396904
  H          -5.75878540670329      0.41157880156634     -1.10628171141593
  H          -5.56177873564394     -1.31488055645947     -1.38283561942183
  H          -4.42208990786115      0.22797824405220      1.00454687052174
  H          -4.22559814908100     -1.50036014415501      0.72989879397359
  H          -3.02658329231399     -1.02431836523933     -1.42010508141448
  H          -3.22649303507205      0.70476739361829     -1.15002692545393
  H          -1.69160346006014     -1.19921007166738      0.69729757124863
  H          -1.89015680173706      0.53111516625009      0.96400350006293
  H          -0.49307442621078     -0.73322911031146     -1.45327077932973
  H          -0.69537367270758      0.99937446888359     -1.19159614653983
  H           0.83582033694633     -0.89916691873103      0.67210388690518
  H           0.63554633353571      0.83913716856588      0.92941306872001
  H           2.05242055525699     -0.45212687948055     -1.47509518983045
  H           1.84856424781656      1.30483053797453     -1.21831329827580
