30
Coordinates from ORCA-job geoopt E -467.990561858167
  C           5.76237994995380      0.43424572063957      0.56071884106535
  C           4.63766034393508     -0.33169243263049     -0.13068462647542
  C           3.25088119395819      0.17764483285071      0.25923195754327
  C           2.11677082460975     -0.58113695739320     -0.42703254111298
  C           0.73342535964980     -0.06864678716840     -0.03420890552149
  C          -0.40195011675885     -0.83537302741836     -0.72888794250592
  C          -1.75729698746525     -0.31678657679638     -0.32932846514562
  C          -2.35643461472628      0.73407227409261     -1.03187403504841
  C          -3.58584292239885      1.25225299356660     -0.63135452901305
  C          -4.23785670085993      0.72656023680310      0.48258528516194
  C          -3.65051137026040     -0.31990637673056      1.19124110611601
  C          -2.42090387474781     -0.83530449722567      0.78757093061819
  H           6.74739979924200      0.05496375719693      0.26742677141058
  H           5.72558361701200      1.50025640760998      0.30662841202003
  H           5.68280919510694      0.34984087219465      1.65103735411084
  H           4.71251252102222     -1.39976638118469      0.11655198994625
  H           4.75629398256962     -0.25710293992540     -1.22056796645552
  H           3.13127288012719      0.10278678799443      1.35009531049345
  H           3.17539790183378      1.24680797204018      0.01201034520511
  H           2.19092471572993     -1.65016097814337     -0.17947046455379
  H           2.23499311942309     -0.50555114433586     -1.51784666658952
  H           0.64905156894286      0.99859414286180     -0.28391346305862
  H           0.60437942928101     -0.14759932463706      1.05462378549165
  H          -0.27870178598914     -0.74847243398416     -1.81591755311067
  H          -0.32316111850096     -1.89970658795779     -0.47321607092299
  H          -1.85338790821704      1.14674953963905     -1.90409049494486
  H          -4.03805125043159      2.06553410861406     -1.19291964770663
  H          -5.19842958898866      1.12736013666683      0.79422439572980
  H          -4.15341372088158     -0.73892292391696      2.05888013813824
  H          -1.96844762987096     -1.65397148862216      1.34357376421477
