20
Coordinates from ORCA-job geoopt E -386.250755100218
  C          -3.02551212222104      1.17216068563837     -0.19551682466489
  C          -2.67707403544723     -0.14418003238182      0.49341383648166
  C          -1.40309181573186     -0.77329353573395     -0.02320949753580
  O          -0.30082357275281      0.13232613008038      0.29611749101745
  C           0.92326267703691     -0.23293811083254     -0.11915513452184
  O           1.13919547792967     -1.26548680312021     -0.73457049201429
  C           1.96254719632957      0.78191448959128      0.26827243991111
  C           3.36984488416981      0.39844941515077     -0.16046184362289
  H          -3.10962392760898      1.03438936987805     -1.27967574821723
  H          -3.98105330678553      1.56151083124237      0.16991209257197
  H          -2.26291215446465      1.93559687956721     -0.01064268666411
  H          -3.47739510951953     -0.87667699630636      0.32976912577120
  H          -2.59661241894027     -0.00246302691527      1.57852468930138
  H          -1.20430554372865     -1.73925721945499      0.45303937347672
  H          -1.43422218446673     -0.91091056457309     -1.11023414696384
  H           1.65904222121499      1.74135157358846     -0.16991189024978
  H           1.89846423335888      0.91816821447497      1.35512436763545
  H           4.07721389844247      1.17279818570497      0.14973872746283
  H           3.67902624622985     -0.54698410145966      0.29530194810492
  H           3.43789200575513      0.29104560276103     -1.24710529328003
