13
Coordinates from ORCA-job geoopt E -195.244282314706
  C           0.64716774993415     -1.42304380058191     -0.00000116453366
  C           0.52047763050775      0.07347968579983     -0.00000399700031
  C           1.59836628329122      0.87598292721014     -0.00000480854659
  C          -0.81785722102831      0.66472005671476     -0.00000374139179
  C          -1.96811232942532     -0.02070196246765     -0.00000078433867
  H           0.15898979820608     -1.85789886940629      0.88037373342116
  H           1.69686911647675     -1.72639656133619      0.00001286632421
  H           0.15901449670465     -1.85789967454577     -0.88038954534057
  H           1.49121614800204      1.95833541973040     -0.00000699244576
  H           2.60652253968420      0.47023016066841     -0.00000397597346
  H          -0.85036041316764      1.75466831593831     -0.00000549851161
  H          -2.92211885724036      0.49880296708719     -0.00000011654047
  H          -1.99686817634521     -1.10726545011124      0.00000107177753
