25
Coordinates from ORCA-job geoopt E -518.767423650225
  C          -4.26830055988062      0.26546912143951     -0.00565251207568
  C          -2.77712283529708      0.09082090851218     -0.01776940436618
  C          -2.18164809226934     -0.95729446691778     -0.72793503687757
  C          -0.80544035222546     -1.14552974170012     -0.70552787226159
  C           0.01649966155436     -0.26655298146644      0.00451457179529
  C          -0.56857287230898      0.78629304487844      0.71388621824862
  C          -1.94830868937094      0.95380618356834      0.70675518463910
  C           1.48138469556913     -0.55148278941361      0.06663186644104
  O           1.86618774204003     -1.71639641441272      0.31380035006565
  N           2.35692734448501      0.45968357895339     -0.10735253544818
  C           2.03328771426619      1.74407606624793     -0.73014794777369
  C           3.78554878865142      0.18609458365402      0.05235338708005
  H          -4.72208468995203     -0.13228330679040     -0.91788401622215
  H          -4.71157054216151     -0.27112226268349      0.84267965155001
  H          -4.54420234896456      1.31922338384880      0.09565141485768
  H          -2.80665072083433     -1.63670441556354     -1.30255479784367
  H          -0.35901762815693     -1.97164106681653     -1.25240031282109
  H           0.05202285987420      1.47159873482956      1.28474845474795
  H          -2.39060867498461      1.77016141719554      1.27284001950451
  H           2.69539095726780      1.89626794529912     -1.59074259511642
  H           2.18243442123069      2.57155522337577     -0.02719115804142
  H           1.00364276675959      1.75681464185979     -1.08551012445965
  H           4.29999294530843      1.13055357489009      0.24786223463466
  H           4.20951419537879     -0.26536665384983     -0.85413211624583
  H           3.95091499662077     -0.49061087993803      0.89278627078856
