15
Coordinates from ORCA-job geoopt E -233.616216430790
  C           2.07148739718644     -0.01054142699582      0.10450159563763
  C           0.75797472171562     -0.68569844018106     -0.27736933492160
  C          -0.47210440097129     -0.03292048790084      0.34645721845298
  H          -0.34893215302988     -0.00295167731588      1.43749616327511
  C          -1.75179417110912     -0.77631450264607     -0.00285698747126
  O          -0.57569864479985      1.35907674025216     -0.04015375862197
  H           2.92500211265671     -0.54072075070502     -0.33090449139153
  H           2.20411989625412      0.00100900679354      1.19279978894163
  H           2.10781392125643      1.02470235038628     -0.24951396586921
  H           0.77618330821162     -1.73782268649788      0.03524045135290
  H           0.63314563833341     -0.68506903449602     -1.37043606555196
  H          -1.70410450478017     -1.81287266352143      0.34816089966143
  H          -2.62006037033449     -0.29639100581063      0.46010643954339
  H          -1.90003719310091     -0.79021101979533     -1.08986855740543
  H          -0.64635791728864      1.37711136703399     -1.00513759973212
