26
Coordinates from ORCA-job geoopt E -688.325264867627
  C          -2.51592114459184      0.62590772713519     -0.77972544664241
  C          -2.04933259962826     -0.21450209407337      0.39860181185496
  H          -2.72143850525305     -0.01152428693009      1.24995347524649
  C          -0.63017166909861      0.12356887385976      0.85890921606117
  H          -0.61709177911711      1.19745780084599      1.07701976691389
  C           0.45323298165594     -0.16098042604599     -0.19032515876309
  H           0.16575301038402      0.33819018715732     -1.13198080749582
  C           1.82090669738476      0.39176925672320      0.22288460509867
  H           2.12133573992905     -0.03926074672554      1.18587098202276
  C           2.88380343386307      0.08715520294964     -0.82432399966340
  O           4.16152066386128      0.61042222933547     -0.44163898491228
  O           1.74327396799759      1.80868699182637      0.43968440773417
  O           0.61596798048114     -1.57101088314796     -0.40056258769985
  O          -0.33292096196003     -0.54029522369018      2.09463328987730
  O          -2.11125412965588     -1.61836788864455      0.07755765971461
  O          -3.87505955941974      0.30965018006368     -1.12028504886061
  H          -1.92704989153140      0.40282047527172     -1.67520661165445
  H          -2.40719546396115      1.69333627952799     -0.54064384467504
  H           2.56751702006085      0.50826869609365     -1.79351146426566
  H           3.01104503472482     -0.99190392043698     -0.94004783813201
  H           4.03507634215460      1.55391042869416     -0.26927922105674
  H           1.46186121306526      2.21769564268941     -0.39263405521842
  H          -0.27673603385864     -1.93003325324653     -0.54303753414256
  H          -0.14550705903250     -1.46655658187780      1.88289291758028
  H          -2.97223012126280     -1.77517160449382     -0.33645088320451
  H          -4.43213695299135      0.58471771633927     -0.37924509171745
