18
Coordinates from ORCA-job geoopt E -906.293987654462
  C          -0.00007210045834     -2.46800128293681     -0.00000898851542
  C           1.20668906126615     -1.77773008402217     -0.01358279376935
  C           1.19809064627024     -0.38461099721773     -0.01783420385068
  C           0.00009724752742      0.32291913661396      0.00019898741505
  C          -1.19795670783462     -0.38444085228423      0.01818350186594
  C          -1.20671975162194     -1.77759031445444      0.01367361796741
  C          -2.48430645280653      0.38858422650419      0.00402159695921
  F          -2.45454207887779      1.43872219152914      0.86137840245771
  F          -2.74732556093935      0.90811726519812     -1.22614832962289
  F          -3.54993658019410     -0.36860088525477      0.34133553689589
  C           2.48437934387943      0.38852366614550     -0.00403607799589
  F           2.45617495395551      1.43540780935874     -0.86549895250618
  F           2.74486074958282      0.91284608086229      1.22462180162837
  F           3.55075053801483     -0.36976065132570     -0.33636254174988
  H          -0.00013473082735     -3.55303346498187     -0.00009042486224
  H           2.14460252734056     -2.32255795313729     -0.02256144755008
  H           0.00018174421564      1.40906247091454      0.00027969635465
  H          -2.14471788359258     -2.32228681311147      0.02255366137837
