14
Coordinates from ORCA-job geoopt E -307.665418465238
  C          -2.81163401863420      0.23080251612546     -0.00063531318464
  C          -1.44661310268110     -0.45034619453665      0.00241356459710
  C          -0.31602360463800      0.57014297382600     -0.00293773846814
  C           1.05236465910175     -0.03971355402874      0.00014140119212
  O           1.30078166057367     -1.23343029167714      0.00378537754256
  O           2.02804512310823      0.89907151132101     -0.00182478103698
  H          -2.93582906456432      0.86891384616836      0.88181692885756
  H          -3.61931388843210     -0.50815243598844      0.00291480978435
  H          -2.93601039391028      0.86059075885322     -0.88902533261583
  H          -1.35137381154587     -1.09338558092000      0.88548634986819
  H          -1.35182892089229     -1.10211873081501     -0.87427025829441
  H          -0.37971604097194      1.22676591795545     -0.88155123093275
  H          -0.37990286873213      1.23643641991042      0.86829830369699
  H           2.88921238861858      0.44603423220605     -0.00010842970613
