11
Coordinates from ORCA-job geoopt E -566.075371986794
  C          -2.80192702120237     -0.11903069203694      0.49542949933257
  O          -1.35962514038497     -0.29422659923113      0.65600172637339
  C          -0.61116454478355      0.19852936149997     -0.31078250534733
  O          -0.97027798511416      0.78190634655775     -1.30574907745984
  C           0.88126955298923     -0.09450277962989     -0.01391082857650
  F           1.66268470245084      0.49927378279523     -0.92288623226939
  F           1.23698083458180      0.34998008306344      1.20587819316644
  F           1.11534117964048     -1.42182344268808     -0.05807301095162
  H          -3.03456374791387      0.94668001904787      0.44630178206614
  H          -3.24124264628028     -0.57470734718050      1.38069947753963
  H          -3.12907154788313     -0.63024848519772     -0.41238112877350
