24
Coordinates from ORCA-job geoopt E -351.510504551202
  C           4.35029577820599      0.39589253511419      0.34148268500537
  C           3.14601131915048     -0.44460869579139     -0.07453185366365
  C           1.82097481855100      0.29529236991047      0.10243126011101
  C           0.60687920245938     -0.53773516575231     -0.30353666271263
  C          -0.71602067818962      0.20787887676267     -0.13506436130988
  C          -1.92676554266179     -0.63920252063230     -0.52537554932119
  C          -3.24981083242387      0.10356186472076     -0.42711873972425
  O          -3.58341898696167      0.48821044501407      0.92317810453357
  H           4.41056983852020      1.31639569384121     -0.25126362073192
  H           5.28972311458733     -0.15096480733399      0.20517626232922
  H           4.28187144426734      0.68449301201188      1.39709212011139
  H           3.12281098041849     -1.37229523280842      0.51402483843966
  H           3.25291289310280     -0.74715098811263     -1.12550727134986
  H           1.84205328191699      1.22161412974800     -0.49047998471882
  H           1.71596471780102      0.60276909091277      1.15336965324957
  H           0.71437684240398     -0.85180526506913     -1.35208106669170
  H           0.58181452811328     -1.45971329803229      0.29554739423045
  H          -0.70165233163288      1.12150514586994     -0.74756350351638
  H          -0.80781304420456      0.53259363405436      0.91159970353770
  H          -1.97192821015419     -1.54109805560721      0.10105129310486
  H          -1.81434949179851     -0.97925422386193     -1.56495543549958
  H          -4.07120322520620     -0.54006569117821     -0.75943749174245
  H          -3.23489646509148      0.99356336738397     -1.07456236019961
  H          -2.94203256577350      1.15324405353552      1.20356975032912
