16
Coordinates from ORCA-job geoopt E -669.658318983197
  C          -2.62984424200055      0.85896378525433     -0.67485396208388
  S          -1.87488858525222     -0.61214982829769      0.09217455636409
  C          -0.12950602423223     -0.30484191769877     -0.05668753216829
  C           0.41266205580994      0.84627651177410     -0.63666609082451
  C           1.79673453425489      0.99857228261483     -0.70841852360267
  C           2.65008095877285      0.01934335471819     -0.20977684187202
  C           2.10561540077142     -1.12762143690645      0.36889953408926
  C           0.72901327872614     -1.29342906078615      0.44711572436793
  H          -3.71037803939960      0.70630217743012     -0.60587082626182
  H          -2.35062054026569      0.94538737787478     -1.72840170497683
  H          -2.36591842106240      1.77085202640508     -0.13246825180921
  H          -0.22643246259499      1.62738136737895     -1.03340345241777
  H           2.20465250413431      1.89790834730728     -1.16196036531206
  H           3.72690247050647      0.14591662604656     -0.26981014501925
  H           2.75707808786394     -1.90243364098250      0.76370571526620
  H           0.31808701436772     -2.19256376343265      0.90022927736081
