22
Coordinates from ORCA-job geoopt E -922.770103388259
  C          -3.70671476828246     -0.21566575744175      0.05372598336172
  C          -3.05229424140714     -1.05805008549613     -0.84139915731465
  C          -1.66245289315881     -1.13664360643199     -0.83912854791678
  C          -0.90922031143345     -0.36508089330533      0.05283326610443
  C          -1.57451494535285      0.47545866445004      0.95308478546086
  C          -2.96350786241432      0.54645016641237      0.95354163837126
  C           0.56693053346413     -0.49317669588290      0.06823645439434
  C           1.14138087404111     -1.76241547634736      0.23096632722989
  C           2.51811645283299     -1.94249231264609      0.26485092728684
  C           3.36379892447691     -0.84501519622108      0.13184973182222
  C           2.82803316046094      0.42568084496465     -0.04648868016436
  C           1.44725231624805      0.58581652787052     -0.07888950756410
  Cl          0.82867114141981      2.21100929856300     -0.38403661730473
  H          -4.79141463076675     -0.15568775671576      0.05385763413265
  H          -3.62371200807330     -1.65598446230513     -1.54583370833088
  H          -1.15327306762508     -1.79154603776575     -1.54148182116595
  H          -1.00275810286473      1.06097411001533      1.66729520118887
  H          -3.46770008536631      1.19602225641296      1.66361601329988
  H           0.47849887600757     -2.61526181475407      0.34919876997738
  H           2.92925645735066     -2.93828937821707      0.40043261633510
  H           4.44202802577588     -0.97051229244359      0.15941959780373
  H           3.47717083656715      1.28620847258512     -0.17112713350774
