23
Coordinates from ORCA-job geoopt E -2849.838558841019
  C          -6.17301440524831     -0.80773407670306     -0.35969698804855
  C          -4.87226633352219     -0.66358009408125      0.42587099740056
  C          -3.65693497690314     -0.46422874698868     -0.47877146536491
  C          -2.34919916270090     -0.32032381933814      0.29698196852632
  C          -1.13714643929930     -0.12263557716826     -0.61289783982466
  C           0.16675924447033      0.01728006619633      0.18136644507516
  C           1.33148039840896      0.20739668222276     -0.76106698985328
  Br          3.05713481580569      0.38953037361553      0.23317765355120
  H          -6.36545831733215      0.08424614810571     -0.96764433087316
  H          -6.12878995397772     -1.66847374887978     -1.03751396157043
  H          -7.03155233275686     -0.95021917713445      0.30567871466229
  H          -4.71635799264732     -1.55578253947881      1.04806792873690
  H          -4.95095154018846      0.18687358090361      1.11722565980076
  H          -3.81175514761937      0.42930827662387     -1.10120997367773
  H          -3.57804065428884     -1.31513910836365     -1.17124667920676
  H          -2.19372958416872     -1.21389719576501      0.91839776906190
  H          -2.42655038149703      0.53145484846898      0.98782734058810
  H          -1.28629774731539      0.77328895967878     -1.23146710044172
  H          -1.05517344483065     -0.97405460975841     -1.30275756933202
  H           0.09385374968449      0.87337707780218      0.86281956563279
  H           0.32398730866590     -0.87892156172099      0.79346916268141
  H           1.48125659736797     -0.64782666133567     -1.42155575260963
  H           1.25152825349301      1.12325114279842     -1.34846705481454
