24
Coordinates from ORCA-job geoopt E -537.814953039688
  C          -3.18479814366314     -0.85337170586793     -0.51165684327028
  O          -1.95748305967641     -0.57547998475479      0.16678972776792
  C          -0.94437903871038     -0.18558260030628     -0.74535062612908
  C           0.33287928000957      0.09098822798887      0.04789748224757
  O           1.27841262752612      0.45959297759778     -0.92757904579126
  C           2.58805158260879      0.77298018171904     -0.41539898245908
  O           0.75652523185453     -1.00372829051730      0.82610921925506
  C           1.00094603643881     -2.21745515322022      0.09630434327181
  O           0.17249324010247      1.07319076044956      1.04476693401792
  C          -0.28233145035962      2.35386132195480      0.57675470295380
  H          -3.54895515057354      0.03600034986680     -1.04554730738566
  H          -3.91391808773767     -1.14330811291267      0.24843852716344
  H          -3.05959296063501     -1.67654132650968     -1.22949984648994
  H          -0.74972273396489     -0.97592326853584     -1.48543063756738
  H          -1.23384556598031      0.71997920159227     -1.29893161797269
  H           3.03315867048556     -0.08914904217913      0.09325978822882
  H           2.55402975052041      1.62713140518979      0.26975698077508
  H           3.19229288118204      1.03144822844790     -1.28687400248244
  H           1.52398168926264     -2.88045172959870      0.78838066074667
  H           1.63376342763027     -2.03971768369561     -0.78032463613676
  H           0.06244765846526     -2.69255817699372     -0.21317423315942
  H           0.29759282292148      2.69623196518678     -0.28751732687974
  H          -0.13021470890761      3.04569042062208      1.40766431403600
  H          -1.34872596349934      2.32973666777618      0.32267179845966
