11
Coordinates from ORCA-job geoopt E -727.918051032935
  C          -2.83190620964678     -0.05329546931438     -0.05368976249124
  O          -1.58059542222356      0.57194499452562      0.34522868584565
  C          -0.46666750048064     -0.10799868160331      0.04633195817803
  O          -0.44299291451944     -1.18244168402299     -0.51529787139866
  C           0.72480760345177      0.69218636557043      0.52227729814728
  Cl          2.28372142898788     -0.14715089677861      0.19780018598258
  H          -2.86059634604886     -0.17030177835241     -1.13966787474655
  H          -3.61149124975543      0.63111405709038      0.27864287878168
  H          -2.93752060963999     -1.02371873058214      0.43704673167146
  H           0.64377690236079      0.86446279350837      1.59875210121549
  H           0.74054944221429      1.65853414615903      0.01058224121427
