21
Coordinates from ORCA-job geoopt E -635.166297686631
  C           2.58012540975324      0.90249232937141     -0.50796321399123
  C           1.38501596760773     -0.04561612476847     -0.50762833289649
  C           1.72395460638909     -1.37424897597283      0.15093866965195
  S           0.00120244944618      0.83980375060488      0.35331352204541
  C          -1.38508937938371     -0.39187616358794      0.32037675255142
  C          -2.57727455066093      0.26916834022369      1.00509746040112
  C          -1.72872708820864     -0.84232897249305     -1.09137324560518
  H           2.92040114135636      1.10792397352073      0.51345808564719
  H           3.41014021097798      0.44058908692185     -1.05445511299858
  H           2.34370447528160      1.85532468056858     -0.99291426447912
  H           1.06814506745053     -0.21650629817657     -1.54349605157722
  H           2.55753697786589     -1.84491174072748     -0.38542305790510
  H           0.88186960257484     -2.07254047887260      0.13088812576594
  H           2.02638518910683     -1.22609288187524      1.19376581713618
  H          -1.06772540112313     -1.25542321564623      0.91722183019294
  H          -2.33783539117429      0.58272828378191      2.02652205222649
  H          -2.91761407881506      1.14662617252718      0.44337619472657
  H          -3.40831405044698     -0.44345477023552      1.05515142921579
  H          -2.56195208926835     -1.55537398691731     -1.05427098413320
  H          -0.88805029285435     -1.34201541866327     -1.58208473660561
  H          -2.03329090507484      0.01019459531629     -1.70892871736928
