17
Coordinates from ORCA-job geoopt E -2771.238271298657
  C          -4.69634979708464     -0.69649974413933     -0.33421495018596
  C          -3.35200098596353     -0.67839254818667      0.38775873137679
  C          -2.20903902428880     -0.22615670853784     -0.52081993152399
  C          -0.86059410711244     -0.20589358689716      0.20821283959728
  C           0.23159836816742      0.24442820688224     -0.73265305409282
  Br          2.01139637502010      0.29021161657487      0.17763886809100
  H          -5.50284964285239     -1.02260524640367      0.33143497530912
  H          -4.67293468204146     -1.37945910659226     -1.19149257444505
  H          -4.95439121090885      0.30090408660196     -0.70907899459127
  H          -3.40767931334331     -0.00936162478692      1.25709515381395
  H          -3.12756841758803     -1.68027220570628      0.77801230440163
  H          -2.14629908047979     -0.89714049822870     -1.38892323244959
  H          -2.42936037001596      0.77717720159265     -0.91139705994005
  H          -0.91645961643117      0.47225388397055      1.06821234631070
  H          -0.63334175041731     -1.20759450226265      0.59242346168683
  H           0.07986328954126      1.26180144106251     -1.09599022536036
  H           0.36746958229890     -0.43632062484329     -1.57427253229824
