19
Coordinates from ORCA-job geoopt E -386.019094137208
  C          -2.66839065139595     -0.57605103442285      0.75556134382181
  C          -1.85070282793046     -0.60080351540475     -0.54234857935312
  C          -0.38035147229694     -0.39180719145664     -0.29536362338573
  C           0.50478325570405     -1.46960509198558     -0.23602704303484
  C           1.86169354132334     -1.29440138966379      0.03081717496878
  C           2.35700332687792     -0.01024799118244      0.24078789364217
  C           1.49913814834010      1.08464898304290      0.18709802414419
  C           0.14335696208159      0.89130493216909     -0.07523875848658
  O          -0.73472563073071      1.95124058175417     -0.13309761534577
  H          -2.55959917554076      0.38158854005017      1.27504043447689
  H          -2.33663142709186     -1.36880376255399      1.43485442541858
  H          -3.73249159487500     -0.72949162233132      0.54631957205132
  H          -2.22936672856986      0.16863544945313     -1.22520703404916
  H          -1.98852042993349     -1.56804160904128     -1.03831783298644
  H           0.11245908780010     -2.47026283534192     -0.40544572451600
  H           2.52546102835267     -2.15302570151164      0.06876731397460
  H           3.41224940906583      0.14659716868051      0.44626400846924
  H           1.87389948052875      2.09348200917889      0.34643260271658
  H          -0.24973536740930      2.77155097786734      0.03479382017346
