22
Coordinates from ORCA-job geoopt E -3680.235396980091
  C           1.52807628955009     -1.26292866335509     -1.47001599109192
  C           2.89930081463525     -1.40034145970898     -1.61975396985743
  C           3.75153809461668     -0.83116424988859     -0.68338602645283
  C           3.24279374479516     -0.12753421689942      0.41307463716325
  C           1.85570438557921      0.00089528821827      0.54721725624137
  C           0.98948542978642     -0.55751357496533     -0.39611057972574
  C          -0.48350389992045     -0.43739970769730     -0.26265300507740
  C          -1.21364938709345     -1.53309850671190      0.18396907352776
  C          -2.59284642720086     -1.45846135689938      0.30635798675067
  C          -3.27520371006758     -0.28434273530181     -0.01932899021909
  C          -2.54832295402586      0.82147546105330     -0.48028119697031
  C          -1.15822001200043      0.73790511101646     -0.60179781104888
  Cl         -0.25256957500982      2.09710687427338     -1.19786780888078
  Cl         -3.37567208748382      2.28276463112155     -0.90285200090452
  Cl         -4.99662361747624     -0.19437751209820      0.13793635098808
  Cl         -3.45745731000424     -2.85677371306902      0.87737204704742
  Cl          1.19098670590312      0.84877385653882      1.91509702171346
  Cl          4.31030934582715      0.56627061056322      1.58974081044006
  Cl          5.47260210016834     -1.01221871159100     -0.89306956889728
  H           0.85877834988918     -1.70295794836253     -2.20230661436457
  H           3.30873709907825     -1.94661160429173     -2.46225069238106
  H          -0.69450775404610     -2.44888791554472      0.44570010079977
