18
Coordinates from ORCA-job geoopt E -906.286691639191
  C          -0.70002492663054     -2.99273200615398      0.14851812042848
  C           0.66944773729648     -2.98070118496619      0.36660393251303
  C           1.36067525211686     -1.77443832746450      0.36536841666373
  C           0.69493499698952     -0.57087485259706      0.14325954786506
  C          -0.69223132560036     -0.58537177675628     -0.10144931104610
  C          -1.37478193687285     -1.79993907952179     -0.08554378635415
  C          -1.51055092615229      0.65908120292202     -0.35396398008610
  F          -2.70011293024071      0.36791552839755     -0.92622211699293
  F          -1.79503061085162      1.32733589756957      0.79378205513857
  F          -0.89609544168338      1.53571621540434     -1.18218891848961
  C           1.52921258270628      0.68859230979036      0.15213114079427
  F           0.93000453819231      1.71197590959966      0.80537399456577
  F           2.72005279120268      0.49547383384855      0.76169191961963
  F           1.81176329272196      1.12709515336655     -1.10173380061947
  H          -1.25184400100054     -3.92728537039743      0.15463290386488
  H           1.20834943781957     -3.90619539758640      0.54275969167483
  H           2.42972630552085     -1.77274993669336      0.54256463027711
  H          -2.44413199493422     -1.81851376916158     -0.26048158671702
