22
Coordinates from ORCA-job geoopt E -479.463068479285
  C           1.67845882712068      1.77544672244595     -0.48322025846370
  N           1.95642098980479      0.38932531485383     -0.10499787897111
  C           3.37420888278942      0.03841229214786     -0.01143987364702
  C           1.04198787697698     -0.60005611692528     -0.09333317887286
  O           1.37414864769259     -1.80495726368101     -0.04472318359860
  C          -0.41232900693917     -0.24817842918128     -0.09812930408844
  C          -0.95352382190926      0.65206436294762      0.82408895012476
  C          -2.32676200873534      0.87494705456506      0.85550789281009
  C          -3.16380686446249      0.21670194372593     -0.04270878583365
  C          -2.62612251019807     -0.68039606538474     -0.96395132990704
  C          -1.25721426722998     -0.92413917771082     -0.98271316266481
  H           1.87630827699623      2.45738694554850      0.35148343816409
  H           0.64409451385077      1.89247303557456     -0.80402724919178
  H           2.33106712251094      2.05157878306496     -1.31987016815531
  H           3.77258916090056     -0.27382044046907     -0.98551279217928
  H           3.51898987676807     -0.77262768913473      0.70473960112857
  H           3.92733788261651      0.91754623876325      0.32888821724189
  H          -0.30492419619307      1.16829999514830      1.52653433092982
  H          -2.74335282227107      1.56493713355501      1.58369489364180
  H          -4.23451636810763      0.39904362854693     -0.02194874481813
  H          -3.27561572322019     -1.19558440592202     -1.66580913317128
  H          -0.83493505446128     -1.63330054657880     -1.68934019167800
