30
Coordinates from ORCA-job geoopt E -654.330383558898
  C           2.44755656408670      3.05995987706373      0.83938322950838
  C           2.29405738053360      1.79908587453054      0.02556812668364
  O           1.35596217190403      0.93581587448208      0.71902330674137
  C           1.01498053736731     -0.20159040488349     -0.00879004224128
  O           2.02945974730133     -1.14675257248542      0.13722575827091
  C           1.94695684627934     -2.23986938413276     -0.81352123277315
  C           3.17318215634955     -3.10046499535117     -0.63511968350079
  O          -0.15613809137035     -0.74755090272304      0.57805982058345
  C          -1.37550040964670     -0.19073975692222      0.23505981521997
  C          -2.49462818205729     -0.94158595910728      0.59796603352100
  C          -3.76588510664693     -0.46694036978695      0.30170843897087
  C          -3.93027339596291      0.74963426823984     -0.36064038665150
  C          -2.80674031657120      1.48888248239798     -0.71562227886477
  C          -1.52202844474416      1.03377489491149     -0.41814346853213
  H           3.15214883593039      3.73162367164485      0.33918237787625
  H           1.48922989682120      3.57934819220028      0.94090525847455
  H           2.83694036116498      2.83728476939122      1.83787385326579
  H           3.25375287632617      1.27807313729426     -0.08469673508027
  H           1.89820995077382      2.01761470175229     -0.97654550557502
  H           0.83579263992157      0.02598794075114     -1.07587134992428
  H           1.03032972710732     -2.81451566902192     -0.62786129800080
  H           1.89758622078563     -1.82214454627924     -1.82888844849068
  H           4.08601666819492     -2.52676278516387     -0.82446272082293
  H           3.21866572269213     -3.51338895374278      0.37761515500618
  H           3.13771032018263     -3.93429259057203     -1.34317191435320
  H          -2.35388812521534     -1.89127612539669      1.10577414031429
  H          -4.63329126498152     -1.05589040540305      0.58645906294554
  H          -4.92485639572694      1.11745219609099     -0.59372075760570
  H          -2.91993281279576      2.44150133070648     -1.22561877806592
  H          -0.66389089760350      1.64106740341472     -0.68356670449978
