21
Coordinates from ORCA-job geoopt E -499.326339592785
  C          -3.21690624090443     -1.40507090836220     -0.00274564105259
  C          -2.56545598081839     -0.05019102971425     -0.00006528155976
  O          -3.25978892327336      0.97332907305616      0.00195485383975
  C          -1.09213405795562      0.03837644745919      0.00005959342540
  C          -0.47047656623201      1.30092950967487      0.00290153765481
  C           0.90258124501813      1.41553683176203      0.00313899548058
  C           1.70060151834963      0.25993492939578      0.00049220705967
  C           1.10502352698305     -1.00615555265440     -0.00238071925570
  C          -0.27990377987733     -1.10304007334402     -0.00255562221806
  O           3.04130308444577      0.47407030163995      0.00096863862738
  C           3.90568179723295     -0.67721010506419     -0.00151255996567
  H          -2.91060718469530     -1.97801449522740     -0.88519570419588
  H          -4.30179599062297     -1.28928529835171     -0.00229351321008
  H          -2.91023402716631     -1.98172654009923      0.87714847011609
  H          -1.08487496042698      2.19598963075542      0.00497110465436
  H           1.38510372061645      2.38842719748944      0.00536975933935
  H           1.70247388129471     -1.91005856791255     -0.00445748788979
  H          -0.72475300088063     -2.09289391644824     -0.00479402801529
  H           4.92114042077706     -0.27961010046644     -0.00058813910796
  H           3.74622574045429     -1.28145384256614     -0.90129370487361
  H           3.74613176648129     -1.28540323652206      0.89558390374700
