11
Coordinates from ORCA-job geoopt E -231.186515885562
  C          -2.51238210863518      0.19605001358972     -0.00004255535326
  C          -1.15064294758668     -0.38176181096421     -0.00001077812144
  C          -0.00547246680905      0.32531589027644      0.00008566786105
  C           1.26504580816217     -0.36345790738700     -0.00001207185289
  O           2.36223332010871      0.19949373838299     -0.00010156057579
  H          -3.07107057469689     -0.16146201906050      0.87487661042896
  H          -3.07088894839273     -0.16116309568503     -0.87520178773332
  H          -2.50059131974838      1.28865455844580      0.00013755986222
  H          -1.08109784714617     -1.47146866049842     -0.00008706218024
  H          -0.00263927226904      1.41444920224904      0.00016309885468
  H           1.21026209611325     -1.47147003774884      0.00002051131004
