20
Coordinates from ORCA-job geoopt E -717.745154901476
  C          -2.43835923007673      1.71413798516756     -0.78014535439028
  C          -1.22492559747079      0.92791450741914     -0.33556507253620
  H          -0.79637506098640      0.34585082642451     -1.15647697513085
  C          -0.16483312473233      1.80099201850034      0.31983129385238
  C           1.08906815568420      1.06788355162646      0.74500064060648
  O           1.69763508385209      0.58141094355727     -0.49464025094943
  N           2.86697147915498     -0.16200134494890     -0.30628820227599
  O           3.27090493318950     -0.32328435329135      0.82168032933837
  O           3.34320770705721     -0.56223641487547     -1.34367250303232
  O          -1.60628242815604     -0.02033729347299      0.73435288984164
  N          -2.18797069225383     -1.21644314504034      0.30517712868804
  O          -2.31261952989301     -1.41529398428868     -0.88067839443576
  O          -2.50443663521032     -1.93771154479427      1.22427700054823
  H          -2.13829226278721      2.41227526856646     -1.56787340035258
  H          -2.85087087994441      2.28777989859572      0.05589961084319
  H          -3.21379647181715      1.05870480266949     -1.18521577575216
  H           0.08857080454285      2.59988586758329     -0.38575043856601
  H          -0.58184859865978      2.28076339291575      1.21336366958949
  H           1.79119223858854      1.74469530358101      1.24019024117378
  H           0.87371560201864      0.21236121560499      1.39171852213998
