11
Coordinates from ORCA-job geoopt E -268.365487591181
  C           2.02937924259705      0.07107545879964     -0.01306673733277
  C           0.75684698995566     -0.75962358916978      0.01832457802752
  C          -0.49467696022997      0.06510379714589     -0.01074913500214
  O          -0.54421320229494      1.28225624512370     -0.06094884559175
  O          -1.61045992171585     -0.70085474457387      0.02583160378541
  H           2.90322779714537     -0.58585164976276      0.01280868504303
  H           2.08482777281105      0.67592582954337     -0.92304961010971
  H           2.08353848457232      0.74425431409021      0.84769184208567
  H           0.70765257293963     -1.45291515227643     -0.83127796872294
  H           0.70964540171633     -1.38955542889944      0.91591057061111
  H          -2.38500056589665     -0.11225271912053      0.00591829360658
