13
Coordinates from ORCA-job geoopt E -195.231483349969
  C           2.18712998907963     -0.57051825552545      0.05241507127768
  C           1.24220037963764      0.34456130161346      0.25556981793016
  C           0.00005252592824      0.48681918030787     -0.57952138791816
  C          -1.24256234595142      0.34445194222386      0.25484459579094
  C          -2.18664413988212     -0.57155879785484      0.05196105881489
  H           3.06478005120728     -0.62635982284652      0.69141481312437
  H           2.11412434653581     -1.29036286366051     -0.76105119262759
  H           1.34328703925080      1.04890982093382      1.08295654343648
  H           0.00034273667509     -0.24795186921682     -1.39281594959086
  H           0.00016205724234      1.49051665387156     -1.03311889094776
  H          -1.34469582743609      1.04946627286733      1.08153436285471
  H          -3.06465091156033     -0.62750164305560      0.69046138542311
  H          -2.11259069182687     -1.29206289995815     -0.76082752506798
