21
Coordinates from ORCA-job geoopt E -312.195561014277
  C          -3.69663600463970      0.27691772385344     -0.00000211992599
  C          -2.39921861535232     -0.52706206649884      0.00000017025542
  C          -1.18709428587006      0.38302319201668     -0.00001901132701
  O           0.00001287450982     -0.41746981335859      0.00001816606686
  C           1.18712109592898      0.38302306628428      0.00006641455259
  C           2.39924427860403     -0.52706446551143      0.00005659866190
  C           3.69666425050626      0.27690983718171      0.00002237404872
  H          -4.56786092774639     -0.38528885480830      0.00019840029697
  H          -3.76365037098306      0.91902430823584      0.88560498807652
  H          -3.76383257764660      0.91873100869229     -0.88580660738833
  H          -2.35916974066358     -1.17714519423545     -0.88332642131114
  H          -2.35915422386407     -1.17713598462720      0.88333207660270
  H          -1.19496532574608      1.03432485460211     -0.89047103755119
  H          -1.19498603383701      1.03439104660905      0.89038348951915
  H           1.19498472249614      1.03432411260101      0.89051804755294
  H           1.19501913840322      1.03438918360727     -0.89033776310545
  H           2.35920452767967     -1.17712998186907      0.88339652440931
  H           2.35916620550326     -1.17715853624609     -0.88326002693664
  H           3.76378162976447      0.91889079095555      0.88571200389173
  H           4.56788678948940     -0.38530001268246      0.00002902238647
  H           3.76376342916363      0.91884664499821     -0.88570063927553
