26
Coordinates from ORCA-job geoopt E -315.590149172339
  C          -4.00292059963144      0.13349960877793     -0.25361950725928
  C          -2.72917523263325     -0.53821979992412      0.25241348611103
  C          -1.46064761475714      0.18522775249026     -0.19941413927277
  C          -0.18604627679607     -0.47690739999761      0.32315265893588
  C           1.12481246365290      0.10794936770562     -0.22156178348160
  H           1.08968747670274      0.04755015697944     -1.32179130392995
  C           1.29497607140304      1.57628759581928      0.17155310235176
  C           2.30998499839374     -0.74533012584735      0.25426880998749
  C           3.66031587335669     -0.34794953302087     -0.33868998027123
  H          -4.89960187915671     -0.40141113164569      0.07810669439283
  H          -4.07510178563683      1.16492897895150      0.11128076491956
  H          -4.02021675070042      0.16707104668245     -1.34948925724600
  H          -2.74711584373496     -0.58271990457246      1.35040878688564
  H          -2.69670831365330     -1.57902402230505     -0.09849361852841
  H          -1.43226228740615      0.21289258503796     -1.29914156626988
  H          -1.51249693653606      1.22953068803955      0.13638155377012
  H          -0.21994351678435     -1.54688543229467      0.07021482799936
  H          -0.17024577507821     -0.41933532990831      1.42269160924075
  H           0.46872563225050      2.19259846445764     -0.19676968313325
  H           1.33003465531721      1.67809431785842      1.26458039484914
  H           2.21906579919239      1.99932320548951     -0.23541238496802
  H           2.36070615986078     -0.69753636499226      1.35233547738250
  H           2.10435157662985     -1.79411944857244     -0.00023914593147
  H           4.43793837219611     -1.06487115909862     -0.05315685801584
  H           3.98585144892378      0.63958693249358      0.00397813290397
  H           3.61576563762516     -0.32422207410370     -1.43444299082235
