16
Coordinates from ORCA-job geoopt E -308.815163880605
  C           2.73703842077036     -0.51269212834146     -0.52281764565909
  C           1.73239084113748      0.06921199834635      0.44393189973620
  O           0.45060561759044      0.11387671101706     -0.19903384756632
  C          -0.55867200612255      0.66288801317667      0.65129513349935
  C          -1.88472461953747      0.56344107031018     -0.06088542686078
  O          -2.30219236193377     -0.79726891729948     -0.25918137716506
  H           2.81839076581509      0.10541499563709     -1.42297032782766
  H           3.72244104815316     -0.55764528298207     -0.04824117644336
  H           2.45300230418296     -1.52807330722672     -0.81850624655641
  H           2.02426217827054      1.08745381828045      0.74732012303214
  H           1.66266478117123     -0.54578976222293      1.35519333084543
  H          -0.59349229303963      0.10804951422022      1.60306138386240
  H          -0.34056357270301      1.72048498461624      0.87479483062899
  H          -1.83404858069621      1.09232824216808     -1.02415991288228
  H          -2.65488578464648      1.04135231503366      0.55283640636667
  H          -1.63290037251214     -1.22054956663335     -0.81282530661022
