12
Coordinates from ORCA-job geoopt E -492.071504654646
  C           1.81514334813108      0.04029986364228      0.98036770601195
  C           0.96004079830291     -0.32696186645175     -0.21417345050141
  H           1.06140268938484     -1.39603602379785     -0.45039139818223
  C          -0.52216736326965     -0.09883759273218      0.07465314208022
  F          -0.79348044957923      1.17989362477973      0.42861496226845
  F          -1.29149559156896     -0.37459418999144     -1.00872225844014
  F          -0.95784496918570     -0.89373469235861      1.08157948912656
  O           1.34814918139390      0.48129841530215     -1.32075153756311
  H           1.73837591066792      1.11018038221762      1.19679728009907
  H           2.85772891057548     -0.20015987322252      0.75814820810729
  H           1.51248155600489     -0.52542993725947      1.86547112731172
  H           1.02858299614250      0.06686530497203     -2.13383102701838
