12
Coordinates from ORCA-job geoopt E -517.259043119894
  C          -1.80929923276191     -0.49391514367896      0.42346038119600
  C          -1.03727168287786      0.34335073407354     -0.58295066736542
  S           0.70959365901074      0.67681723181888     -0.10902624260301
  C           1.39852522242096     -1.01382547794593     -0.22370557863833
  H          -1.37110218164109     -1.49011997926636      0.53885062962220
  H          -1.83255610616261     -0.01104200606246      1.40542478271450
  H          -2.84280309465326     -0.62426841856535      0.08048019380123
  H          -1.49299504930158      1.33369584923959     -0.69393859801057
  H          -1.03524923528568     -0.13020275112068     -1.57177718730475
  H           1.19239574837318     -1.44449955117139     -1.20863436427972
  H           1.00075210005307     -1.66648116363296      0.55801966447484
  H           2.48135826282606     -0.93227287638793     -0.09398974100697
