27
Coordinates from ORCA-job geoopt E -390.795633881265
  C           4.56565408018563     -0.76238629511223      0.76074097513909
  C           3.53975369991911      0.21737571755599      0.19829147289758
  C           2.12497504998048     -0.36046300740911      0.19848762673699
  C           1.11433399059024      0.61887561555398     -0.36408602459899
  O          -0.18421848093824      0.01698771798565     -0.33856975272054
  C          -1.19150413280243      0.89267469197629     -0.86023434270818
  C          -2.53718433506630      0.19797609897642     -0.80602265458192
  C          -3.00857624830835     -0.12968508396715      0.61065043476839
  C          -4.40354449958838     -0.74851690902521      0.62513682907148
  H           4.59118535956014     -1.68612299869786      0.17103392193195
  H           5.57310937405158     -0.33284844139166      0.75401063719128
  H           4.32392113072753     -1.03368565108669      1.79498371581158
  H           3.55384799030925      1.14439868734493      0.78718263607419
  H           3.81863963785851      0.49474837402645     -0.82721972135875
  H           2.10284636796707     -1.28344109301098     -0.39688208754411
  H           1.83546597743122     -0.62899391616643      1.22365672180974
  H           1.10351877994973      1.54755158426567      0.23115653345757
  H           1.37555849513737      0.89034546667336     -1.40109267061819
  H          -0.93883224764936      1.16442327087103     -1.89827942993514
  H          -1.21336643548333      1.82217078937472     -0.26581954167910
  H          -2.49633958902036     -0.71957926522566     -1.40961569950556
  H          -3.26818959120790      0.86007349269590     -1.29004835850822
  H          -3.00389786436574      0.79075951825093      1.21097293336127
  H          -2.29886541430068     -0.81713610745478      1.08702260812165
  H          -4.42609688471464     -1.67942543189367      0.04625382538513
  H          -4.72774768144867     -0.98196183013715      1.64500263394838
  H          -5.14135328317351     -0.06633041927274      0.18647749675244
