17
Coordinates from ORCA-job geoopt E -438.071583597279
  C           2.31922394079059      1.47389014258656      0.37570779066717
  C           2.13304280789493      0.07854828350514     -0.21024885941282
  C           0.81539538671889     -0.57544859894935      0.17079378294213
  H           0.65511167285215     -0.50637301552932      1.25177684496320
  C           0.67346318381633     -1.99550242202029     -0.33213607898670
  O          -0.20561841933583      0.28259747260420     -0.48274190980982
  N          -1.48990414363501      0.21624158112631      0.05097122132805
  O          -1.69018248585303     -0.48105179962054      1.01944361742147
  O          -2.28540494502036      0.90604228742904     -0.54954516275638
  H           3.30529202464111      1.87066320560601      0.11502130570781
  H           2.24282597836085      1.45224700042336      1.46854135266837
  H           1.56751779027279      2.17345423006708     -0.00323645075374
  H           2.91999451575647     -0.59199581316017      0.15540313125402
  H           2.21836885910359      0.09730168384253     -1.30420715983010
  H          -0.31268187085945     -2.41024342410288     -0.10626306259678
  H           0.84164220811650     -2.03716506671354     -1.41307395338701
  H           1.42430316647948     -2.62120856669413      0.16052822378113
