9
Coordinates from ORCA-job geoopt E -577.444394194781
  C          -2.28431132658362     -0.32697293653442     -0.26698889619447
  C          -1.22778212279253      0.01789938436475      0.46603075362796
  C          -0.09599510916140      0.80279225183761     -0.08126984117940
  Cl          1.46262536533115     -0.20949781800801     -0.02902978110477
  H          -3.11725811492320     -0.87126259132521      0.16943769064550
  H          -2.35069709731783     -0.06646706164622     -1.32138925062445
  H          -1.17058317968656     -0.24982688849758      1.52025479937186
  H          -0.24219898646267      1.07847884903516     -1.12704325922595
  H           0.13049463849666      1.68609405487392      0.51970518248371
