20
Coordinates from ORCA-job geoopt E -461.196415779092
  C          -2.72786617077326     -1.41840960466165     -0.00008122828046
  O          -1.29336135298062     -1.37550366823770     -0.00012150927729
  C          -0.70690409810063     -0.13782119974863     -0.00008553962571
  C          -1.39626457918014      1.06896471613685     -0.00006027244991
  C          -0.69289777690579      2.27824015560848      0.00000438592290
  C           0.69303216730695      2.27820492538503      0.00005275416678
  C           1.39633792298467      1.06889385755671      0.00002799909862
  C           0.70691653035831     -0.13785730017531     -0.00004794894998
  O           1.29331080560308     -1.37557008975017     -0.00007379058910
  C           2.72781352860064     -1.41854821712203      0.00002426696225
  H          -2.99018672155055     -2.47742853840686     -0.00012691137194
  H          -3.13621743479545     -0.93912876652928     -0.89768890369117
  H          -3.13615974900428     -0.93922203653193      0.89760305470655
  H          -2.48030091599501      1.08039427769290     -0.00008764082978
  H          -1.24497868450713      3.21329504850357      0.00002162571291
  H           1.24516032363742      3.21323191286454      0.00010983077220
  H           2.48037479388732      1.08026968539267      0.00006783926646
  H           2.99008103471931     -2.47758026617426     -0.00001657780868
  H           3.13609576121533     -0.93938455482879      0.89772625072536
  H           3.13622412187985     -0.93928406087412     -0.89756550076002
