14
Coordinates from ORCA-job geoopt E -2731.939949887876
  C          -1.73908554687045      1.44684680129193     -0.28414990966781
  C          -1.65633231131834      0.05102936606059      0.32622806289653
  C          -2.95794140487346     -0.72558487613677      0.08486227950121
  C          -0.52801556217512     -0.77644427955495     -0.25979600105585
  Br          1.28064691378440     -0.02182556915655      0.14284771526209
  H          -1.88508247095182      1.38196724871390     -1.36963022278079
  H          -2.58428712777587      1.99976680226611      0.13871117228562
  H          -0.82861530663053      2.02428708129880     -0.09633546364085
  H          -1.49926153918346      0.13711085850719      1.40971324649523
  H          -3.80561160404595     -0.17864534030041      0.51073080739842
  H          -2.92621572890283     -1.71837257090686      0.54610266617216
  H          -3.14214725693030     -0.85057990176108     -0.98893210196866
  H          -0.57576654011434     -0.82120831387653     -1.35006233984938
  H          -0.49666717851193     -1.78423606074536      0.15603695165209
