24
Coordinates from ORCA-job geoopt E -389.390266549981
  C           4.29311517902884      0.53155595889434      0.59180836230362
  C           3.27979598351089     -0.21318331572577     -0.27282918823425
  C           1.83712850178851      0.10470273423361      0.11314791840859
  C           0.81244983543255     -0.64162216203498     -0.75392372552150
  C          -0.60294818500706     -0.31303424002622     -0.36095486468169
  C          -1.26920359087757      0.77589255916770     -0.93292387700437
  C          -2.55997537704336      1.11426495729808     -0.53310795983830
  C          -3.20722394221478      0.36698075689132      0.44919997523659
  C          -2.55329795884722     -0.71947242252112      1.02736974155472
  C          -1.26248859760927     -1.05463417403707      0.62483852323409
  H           4.17521633873856      0.26886014936288      1.64969598151732
  H           4.16399919733211      1.61657328669794      0.50193224593248
  H           5.32162713945542      0.29208800652214      0.30066189454722
  H           3.44558609393135     -1.29605022669714     -0.18832954424733
  H           3.43499847788693      0.04369785109675     -1.32978299952298
  H           1.67149959011808     -0.15533241144951      1.16842977763445
  H           1.66138652950346      1.18639768587498      0.02525339493840
  H           0.98172772588581     -1.72161231558315     -0.65737230993543
  H           0.97469969126062     -0.37641985650595     -1.80641988457016
  H          -0.76999954495279      1.36149560538752     -1.70229788316428
  H          -3.06343339703704      1.96082694331025     -0.99259062636567
  H          -4.21538145268024      0.62729824179084      0.75951509488819
  H          -3.05155076468344     -1.31071329376666      1.79120746627776
  H          -0.75819243542038     -1.90581099688080      1.07791204571253
