31
Coordinates from ORCA-job geoopt E -746.629347079964
  C           1.60050487561144      2.15982996768899      1.18826090255813
  C           1.90213221268946      1.58441119626694     -0.18481651580515
  C           2.93316343088122      0.43288323778281     -0.10961942404793
  C           2.06241703610936     -0.78936376576323     -0.03252607645949
  C           2.34087485201019     -2.11753037707500      0.25299521208522
  C           1.30270339504384     -3.05391005693678      0.20179689312158
  C           0.00484785182876     -2.66041702368639     -0.12441824023774
  C          -0.26604221626167     -1.32747035238243     -0.40965490440556
  C           0.76829842810061     -0.40349934807004     -0.36999757726710
  O           0.63911417546763      0.92120285775244     -0.64799616771534
  O          -1.55380643570674     -0.94332637246490     -0.79386297611824
  C          -2.19899565038108     -0.05410968136432      0.05460834322544
  O          -1.78378591882334      0.22620237324658      1.17356045750721
  N          -3.31110540788111      0.41924970777932     -0.51537886543250
  C          -4.22349913734866      1.28186494853706      0.22588329340527
  C           2.23997395763089      2.64868466181055     -1.20310822685912
  H           1.33197576889245      1.36228313769538      1.89022242592752
  H           2.48467634009516      2.67699212099764      1.57504540838765
  H           0.77412047562804      2.87534324507320      1.13165041436522
  H           3.56072824251655      0.40585965694270     -1.00984990796091
  H           3.59089354699839      0.54840346170190      0.75718205228259
  H           3.34973255552212     -2.42787769370048      0.51094629228222
  H           1.50190046355010     -4.09744837010031      0.42466726318534
  H          -0.80834003276549     -3.37973839143169     -0.15491546599398
  H          -3.57183569211078      0.07544993169652     -1.42770590720222
  H          -4.64396688283900      0.76515960261812      1.09552387938972
  H          -5.03704182627293      1.56950881288611     -0.44128852187815
  H          -3.71137467622340      2.18684420352207      0.56625361682521
  H           3.16753122879184      3.15036400340434     -0.90888774066740
  H           1.44601005173888      3.40038568676023     -1.25844743884177
  H           2.38530429040726      2.20620651541265     -2.19334546855568
