16
Coordinates from ORCA-job geoopt E -492.044929114568
  C           1.10907409667104     -1.85891780330383      0.00126428738803
  C           2.11332573197457     -0.90129767435981     -0.02298120490271
  C           1.80278798160351      0.47199967619213     -0.04180584022041
  C           0.45507063011365      0.85415133909903     -0.03079492770548
  C          -0.52084445287120     -0.13367488153093     -0.00684236813945
  C          -0.23340361968924     -1.49542381722573      0.00879591074933
  N          -1.92427238159073      0.28470156978584      0.00688990649773
  O          -2.79563572550076     -0.58480177883355      0.03708478886664
  O          -2.17930932604897      1.48898613477353     -0.01204938611203
  N           2.80218012810338      1.41953397241679     -0.12654994007356
  H           1.37717333661425     -2.91086597988253      0.01734493301166
  H           3.15617581438113     -1.20805020341457     -0.02654768440757
  H           0.18059485622298      1.90298911966197     -0.03935068674084
  H          -1.02201339992291     -2.23625252804298      0.02855660002377
  H           3.71050610433635      1.11971461585970      0.19888846204038
  H           2.55171590540294      2.34668761930496      0.18751918412450
