16
Coordinates from ORCA-job geoopt E -308.788373118760
  C           2.76922785444527      0.20532612133429     -0.32669755995412
  O           1.44530658300260      0.34510407478770      0.18789160265247
  C           0.64141326995899     -0.79394413703822     -0.12727028738373
  C          -0.75208791836924     -0.58003361101688      0.39579463221207
  O          -1.37895754730532      0.46928393956492     -0.34474350882182
  C          -2.69360825504946      0.73690918078111      0.14212677708168
  H           3.26775767699838     -0.67849833104313      0.09825657191599
  H           3.32558280669527      1.10240204316768     -0.04345306994831
  H           2.76076863110477      0.11573940829216     -1.42287468481829
  H           0.62019615378429     -0.95095184632330     -1.21814317325102
  H           1.06259894834137     -1.69867379899280      0.34021417363851
  H          -0.72294127846593     -0.32097199123640      1.46686603122396
  H          -1.32165545052342     -1.51706148106922      0.28621833341058
  H          -3.33520632848086     -0.15284395642964      0.05910300522689
  H          -3.11109936658906      1.53948117244060     -0.47113126463297
  H          -2.66873639614766      1.06022764298113      1.19310545124810
