26
Coordinates from ORCA-job geoopt E -879.902163391611
  C           2.10876130342608      2.96837255199818      0.25451197965362
  C           1.79191138480121      1.59097950500920     -0.26400559911003
  O           0.35978359183201      1.34845979651736     -0.02284666930789
  P          -0.29999803403132     -0.00769955778341     -0.53723431363533
  O          -0.20170466275753     -0.29362069947794     -1.99563277877955
  O           0.38044350963995     -1.08879882106699      0.42492751834128
  C           0.12638961615955     -2.51944643026840      0.18531629961257
  C           1.27951853884755     -3.13194929226380     -0.56900364848173
  O          -1.82618445738690      0.14233125059712     -0.10632271734013
  C          -2.19630492121112      0.26316832710546      1.31351426782615
  C          -3.69154224212874      0.42999103459910      1.37554629045936
  H           3.17145044968455      3.17377578642648      0.09040820418115
  H           1.52483553669093      3.72932308172735     -0.27196365331391
  H           1.90547990372797      3.03945059288766      1.32731772726813
  H           2.36344509182363      0.81879557435481      0.26210614231334
  H           1.97750643481555      1.51037678939866     -1.34056766307183
  H           0.01727810636642     -2.95402913196547      1.18224775977861
  H          -0.82195747203578     -2.63742994369449     -0.35131218180027
  H           1.09943487678928     -4.20588217490909     -0.68762315975311
  H           1.38233284837827     -2.68684339971169     -1.56323669250410
  H           2.21669298997917     -2.99909305809639     -0.01961197003575
  H          -1.86817583157969     -0.64567705710754      1.82896070480210
  H          -1.67507096630682      1.12886253447234      1.73565192359276
  H          -4.20048417403313     -0.43396251782750      0.93745396153037
  H          -3.99609692768708      0.51457140570599      2.42366345080152
  H          -4.00804037270400      1.33613781007299      0.85027244347268
