20
Coordinates from ORCA-job geoopt E -386.252182218744
  C          -1.98780558989819      1.50702950020174     -0.32367596291889
  C          -1.81062360464013      0.16830252871089      0.39146115376047
  C          -3.00608142090190     -0.75169424486492      0.13849148617099
  C          -0.55129440485760     -0.54694027695484     -0.06197912651753
  O           0.59572310823698      0.28580343842567      0.28613882266174
  C           1.80720407109116     -0.17331054428938     -0.06797280510862
  O           1.97452883796076     -1.23172776917056     -0.65504989790229
  C           2.89527108641351      0.76600862896004      0.34334777226210
  H          -2.06058724913898      1.35434028211733     -1.40785880630269
  H          -1.15145415878916      2.18631996309995     -0.13095581180504
  H          -2.90609564143121      2.00214193093972      0.00979496390286
  H          -1.72682539503924      0.34635969465757      1.47312921836490
  H          -3.93226650262677     -0.27633661446448      0.47698167117591
  H          -2.90033054803166     -1.70497408576911      0.66798835716345
  H          -3.11064315169024     -0.96618892097477     -0.93219083186913
  H          -0.43818612385639     -1.51584434313474      0.43708882418900
  H          -0.55488232110287     -0.70244767680149     -1.14805383213594
  H           2.86568358920979      0.91457070560806      1.42738335387697
  H           2.73654502238746      1.74226662074302     -0.12585937500888
  H           3.86539317540469      0.36591374126031      0.04908428804061
