24
Coordinates from ORCA-job geoopt E -687.130310187437
  C          -2.57827961838294      0.86599220495004     -0.32845395439110
  C          -1.14957803803564      0.42429978267268     -0.58471764222425
  H          -1.00123338942374      0.36683482239621     -1.67731319803306
  C          -0.80364856901537     -0.92698237119506      0.04005801089254
  H          -0.99452814135894     -0.88201564328525      1.12398638569846
  C           0.66789525124211     -1.24258527718879     -0.18561279787149
  H           0.84035443240663     -1.37547863041242     -1.26695518373259
  C           1.54275730484816     -0.10059555431393      0.31104635556079
  H           1.43529660597052      0.00105981455172      1.40305597368483
  C           1.09001569760506      1.20322848175068     -0.33696746599260
  H           1.21286607490533      1.15839781996204     -1.43316327152456
  O          -0.28950484696738      1.43263552859164     -0.02760660262423
  O           1.83608769115846      2.25519837439334      0.21361671022583
  O           2.89178840609837     -0.41343483670961     -0.03887750875708
  O           0.95058167298474     -2.46377687055468      0.50684495090153
  O          -1.64210185807126     -1.90950948478026     -0.57273558091387
  O          -2.91662803605279      0.90562570874857      1.06197924845081
  H          -3.26405238486517      0.15716844087544     -0.80054265452269
  H          -2.72808411882866      1.85084908090496     -0.79324531268961
  H           1.79167104513125      3.00918892999149     -0.39017736863519
  H           3.46541151283112      0.22606589663580      0.40377152864777
  H           1.83105232739674     -2.75661218812261      0.23779957141870
  H          -1.38698082685107     -2.76904504188327     -0.21094917544694
  H          -2.34954992832553      1.56740525902129      1.47985115117799
