16
Coordinates from ORCA-job geoopt E -492.047943138417
  C          -2.58125936006741     -0.26317594030194      0.00008255716195
  C          -1.87989289607387     -1.48496577978661      0.00010216981825
  C          -0.50778244446717     -1.46725308970789      0.00007648690785
  C           0.19596448047832     -0.24719914977702      0.00003436622564
  C          -0.49584438724299      1.00174396519918      0.00001560042379
  C          -1.91454563333622      0.93576804185197      0.00003970779102
  N           0.08787453026092      2.21326849929656     -0.00002763974243
  N           1.61972998617206     -0.31556000635524      0.00000987456372
  O           2.17678997941834     -1.42433820550841     -0.00000421276596
  O           2.28335276008861      0.74157100810299     -0.00001401737430
  H          -3.66757741764122     -0.26446326562695      0.00010169372731
  H          -2.41524608597924     -2.42817858571565      0.00013830708122
  H           0.05885954667638     -2.39027154135931      0.00008959915117
  H          -2.46419792861665      1.87316565104366      0.00002533368800
  H           1.09124529494842      2.29888395333080     -0.00002609205084
  H          -0.49772001841827      3.03419557441387     -0.00002995800637
