26
Coordinates from ORCA-job geoopt E -593.971555340775
  C           4.20941208098665     -0.08632746204085     -0.03638557571515
  N           2.78701132596285     -0.40617965427153     -0.15944375633878
  C           2.49087597005590     -1.67361748970000     -0.82925747536216
  C           1.88250052098197      0.57055727577130      0.06922515719424
  O           2.23993231687271      1.74217327893496      0.32878749514544
  C           0.43018611792828      0.23510823377290      0.05349403226441
  C          -0.09091848066964     -0.88579873581381      0.71419754523644
  C          -1.45634523961615     -1.10627329631953      0.75994345575921
  C          -2.33092657123272     -0.21461595281632      0.12689137817014
  C          -1.82787140375466      0.90863432563835     -0.53586503874428
  C          -0.45482147299008      1.12825906956513     -0.55188804688432
  O          -3.65792879843709     -0.52347458276652      0.21678791996629
  C          -4.59178724786206      0.36816192070422     -0.41490418288553
  H           4.76288816510127     -1.01726936476427      0.11217153809859
  H           4.37847158986208      0.56907141335425      0.82011327807467
  H           4.58833968949910      0.40854986316485     -0.94031993424648
  H           3.13575793536978     -1.76633086411703     -1.71128320298354
  H           1.45384106461893     -1.70629702792591     -1.16125384770198
  H           2.68486028088827     -2.52538557225967     -0.16737987373709
  H           0.57328424598207     -1.58402831779309      1.21549764634538
  H          -1.86376773481015     -1.96456279810893      1.28598755234897
  H          -2.48524817869078      1.61268161036966     -1.03220499947464
  H          -0.06413907854482      2.00811371734218     -1.05555083079256
  H          -4.53316577551775      1.37153135859788      0.02225335588456
  H          -5.57822272976298     -0.05676377710909     -0.22422099832673
  H          -4.41631448802098      0.41867025729087     -1.49560491659509
