19
Coordinates from ORCA-job geoopt E -311.003554039427
  C           3.68287601573490      0.07650468200149      0.01584807756650
  C           2.30166263236464     -0.56481828223982     -0.08615154252967
  C           1.17033419023910      0.44927011582547      0.07277512489719
  C          -0.21538416183784     -0.18504894355260     -0.02722984882576
  C          -1.32955700711112      0.83883507966704      0.12965855393787
  C          -2.71437811524122      0.30086786636914      0.04553415863777
  O          -2.99643170661558     -0.87434944985806     -0.13597557480105
  H           3.82019655034902      0.83865150947775     -0.76032064839014
  H           4.48028955847298     -0.66560471806877     -0.09960559764989
  H           3.81829464059485      0.56427784572057      0.98844886774032
  H           2.19855223112318     -1.34386860297417      0.68177142909010
  H           2.19962395866015     -1.06992991610645     -1.05657410428761
  H           1.27083183283419      1.22900480379698     -0.69616974831736
  H           1.27035483524955      0.95577069549607      1.04377109498408
  H          -0.32297881621692     -0.96000185808996      0.74302002568898
  H          -0.32088141473310     -0.69059307559808     -0.99613818270605
  H          -1.26395939320816      1.37350593690071      1.09144052768434
  H          -1.26251640070549      1.63770756595956     -0.62710349497021
  H          -3.52472973895313      1.05075536657314      0.16016062365059
