32
Coordinates from ORCA-job geoopt E -1559.740386738410
  C           4.38592244905794      2.85386640305847     -0.37127961491234
  C           3.21629401635791      2.22361503450449      0.33678356781363
  O           3.01983165220510      0.88787572393683     -0.25212606997907
  P           1.80413585935856     -0.02987233344528      0.22283780460046
  S           1.47350160507467     -0.18603771535038      2.12547203585173
  O           2.05507310455015     -1.36239330143077     -0.61801534740716
  C           3.01872903047255     -2.36912728672307     -0.13862762567912
  C           3.03198823261309     -3.48538008060611     -1.14851577610174
  O           0.59204287281177      0.64285142148565     -0.64846591610140
  C          -0.75143912570163      0.40340460002280     -0.42827972937125
  C          -1.58918626839076      1.51522011507764     -0.47344998314119
  C          -2.95192558092021      1.34347216417502     -0.31018011404366
  C          -3.44461537512159      0.05737121498598     -0.09936903778401
  C          -2.61088376112247     -1.05738747242015     -0.05606931760851
  C          -1.24775710982404     -0.88348476570152     -0.22496300922033
  N          -4.87842272219669     -0.12779002392133      0.07710130694245
  O          -5.30227732671989     -1.26653247652527      0.27866563657577
  O          -5.60839838555389      0.86245777977725      0.01749865430819
  H           5.29240240597549      2.25576278147667     -0.23761457199749
  H           4.18495704248063      2.96690665615403     -1.44071847142569
  H           4.56222159154801      3.84704229599908      0.05410261074483
  H           2.29530478688469      2.80012296271321      0.19552061429037
  H           3.40554047850721      2.09737776455833      1.40748229347487
  H           3.99917638814453     -1.88922773793847     -0.04746333780706
  H           2.68775347347012     -2.71323202096982      0.84650554743087
  H           2.04074859678057     -3.93930597819323     -1.24211108338482
  H           3.35633581771792     -3.12571900883565     -2.12948718790897
  H           3.73404695716725     -4.25557075520700     -0.81334706906226
  H          -1.16477004206616      2.50063916045466     -0.63353947069064
  H          -3.62106911448026      2.19488759615788     -0.33829682792836
  H          -3.02066062422257     -2.04800505451262      0.09971409274411
  H          -0.58295689745803     -1.74035472055732     -0.21198176692221
