17
Coordinates from ORCA-job geoopt E -346.950074937038
  C          -3.34571742969603     -0.02652224987136     -0.00629573429190
  C          -2.01174476035144      0.63155559196591     -0.35020618571296
  C          -0.85943372990564     -0.22520456884628      0.12388145191690
  O           0.37858840781801      0.45825123316144     -0.24273234093040
  C           1.52673750027247     -0.15164872424489      0.09873804592301
  O           1.56356135542526     -1.23031513785944      0.67144316234803
  C           2.72672574000584      0.65783469067406     -0.27390330912048
  H          -4.18163273524239      0.59207688085216     -0.34611352612073
  H          -3.43724792989082     -1.00795078308096     -0.48484315498723
  H          -3.44986351544258     -0.16758848423449      1.07531166326263
  H          -1.94543268645911      1.61984856621409      0.12076838922077
  H          -1.93131860525027      0.77784633081465     -1.43420911322567
  H          -0.87555776796922     -0.35842260874025      1.21163936486003
  H          -0.86708231820584     -1.21155551834225     -0.35375635719419
  H           2.94697113960537      1.34131784930611      0.55491852772827
  H           2.54563174817686      1.25697292112000     -1.16830492582968
  H           3.58589871390954      0.00063874481150     -0.41564189304638
