23
Coordinates from ORCA-job geoopt E -276.292202093404
  C           1.79962028302702      1.34358255392547      0.00602287106409
  C           0.99058410420325      0.32662637874121      0.80819322945606
  C          -0.00010266260097     -0.53792115315165     -0.00003589896716
  C           0.76042263586969     -1.43724131543179     -0.98401918748524
  C          -0.76095288169644     -1.43700396411898      0.98391023193771
  C          -0.99050702617838      0.32702314618805     -0.80820416093742
  C          -1.79909966458703      1.34428987028192     -0.00596849094661
  H           2.48842771217190      1.88629172839351      0.66294651903012
  H           1.15565693928583      2.08632346111942     -0.47751133077441
  H           2.40135334968518      0.86438978412593     -0.77380324903411
  H           1.68022132696983     -0.35392737911735      1.32773975991645
  H           0.43535972700321      0.85320473818615      1.59628191545694
  H           0.06708772154120     -2.10880779059736     -1.50513474490858
  H           1.49885310445188     -2.05607718788506     -0.45944566910647
  H           1.28794731450187     -0.85209592803494     -1.74548331294429
  H          -1.28814904210097     -0.85167267753142      1.74546530691369
  H          -1.49961393302536     -2.05559668683923      0.45939172433608
  H          -0.06780193445156     -2.10871650798639      1.50509383639784
  H          -0.43508439343366      0.85341069842061     -1.59627943243364
  H          -1.68043347499849     -0.35324796476906     -1.32772878313298
  H          -1.15483883038579      2.08686787027459      0.47741413904748
  H          -2.48785028355237      1.88715948722944     -0.66282079390600
  H          -2.40088103599985      0.86532156137696      0.77395877352044
