21
Coordinates from ORCA-job geoopt E -312.218036151480
  C           2.45754557957170      0.02710227840850     -0.87679184906366
  C           1.21640251557041     -0.37534047896104     -0.10485844432416
  H           1.03631448064638     -1.45120979489587     -0.25428184119517
  C          -0.00987353289488      0.41456695882116     -0.55390849678449
  C          -1.30194828586503      0.14327459114766      0.22894298521503
  C          -2.43448499959112      1.00499939231732     -0.33134358343275
  C          -1.69220057801253     -1.33564738528049      0.20475223122618
  O           1.50813856183161     -0.14780826142582      1.29658062677145
  H           2.30810774949643     -0.14561946248494     -1.94712361629505
  H           2.67567730462046      1.09097694026022     -0.72698649325135
  H           3.32579616230973     -0.55634715497318     -0.55346042301611
  H           0.22826852668536      1.48674717605243     -0.49720524085886
  H          -0.18679220010214      0.18140158736054     -1.61450079819595
  H          -1.14382175912055      0.44176302962906      1.27672151214970
  H          -3.35641755602324      0.87039303273127      0.24555167749319
  H          -2.64667395896983      0.73103789195460     -1.37280114584510
  H          -2.17379997236002      2.06942867639050     -0.31045802879736
  H          -2.65086077685600     -1.49093762615103      0.71258966552014
  H          -1.79707741673569     -1.69072596568398     -0.82861758058899
  H          -0.94948462229458     -1.96802197177609      0.70370533020446
  H           0.75692139039353     -0.47307700034082      1.80979875896884
