23
Coordinates from ORCA-job geoopt E -388.425649442183
  C          -2.73415791751143      0.74583360308144     -0.74682941681696
  C          -1.77036502890069     -0.13745820396340     -0.01311016357103
  O          -2.15348877734178     -0.91926394731223      0.85474238078461
  C          -0.31208258950229     -0.01418312276596     -0.38341559433476
  C           0.48198025898514     -1.30209448528778     -0.15575070565613
  C           1.95347023223662     -1.10481874251263     -0.52439646173098
  C           2.57138278564008      0.04745038955141      0.26969861429428
  C           1.77431510533955      1.33832406215727      0.07676074907821
  C           0.30067221643864      1.14563870687552      0.43887408725990
  H          -3.69026305203488      0.81143300851486     -0.22335923049893
  H          -2.31318932699110      1.74222894950725     -0.91413626008627
  H          -2.89978650390451      0.30333042960595     -1.73859121823220
  H          -0.25930355577273      0.27247149540434     -1.44466489570264
  H           0.40561950054321     -1.58688850141627      0.90187511250320
  H           0.04289497445616     -2.11844405878076     -0.74276551753047
  H           2.50954026636330     -2.03287587338247     -0.34351819464830
  H           2.03294577441362     -0.88877152566589     -1.59973010635655
  H           2.57980000881597     -0.21473260964769      1.33768916602453
  H           3.61528531505791      0.20001996239628     -0.03094149946035
  H           2.19827196077518      2.14465943828972      0.68801983267547
  H           1.84628361267181      1.65779857789021     -0.97273862430839
  H           0.21022450740325      0.89962198447388      1.50654151982062
  H          -0.25927844218101      2.07219139648694      0.26585309519314
