20
Coordinates from ORCA-job geoopt E -2179.993868294912
  C           3.41178655213712     -1.85945527031140      0.60162591120756
  O           1.98179123887587     -1.61678756203178      0.77870477541227
  P           1.29200735009755     -0.48260640733947     -0.11301103943104
  O           1.31927869503058     -0.68439639110662     -1.58861372866302
  C          -0.35259370168630     -0.46366200553628      0.79049284697330
  H          -0.61249397873609     -1.51048405020173      0.99484197931051
  C          -1.52443753300376      0.12856318378080     -0.02528262788713
  Cl         -1.89306672547274     -0.92219411172361     -1.42934694284380
  Cl         -2.99104339195652      0.21930067959894      1.01714267544061
  Cl         -1.13022390304338      1.79246122380589     -0.60157264300403
  O          -0.19378138094455      0.17807901517383      2.03350016854701
  O           1.96743411693850      0.88929663971212      0.37848354561642
  C           2.57642272724725      1.80311898730617     -0.58051424157452
  H           3.66120304223368     -2.67150978203112      1.28420411752912
  H           3.97844537819953     -0.96113327200585      0.86335190789291
  H           3.61771272093159     -2.15883660741090     -0.42971687906261
  H           0.25044109971385      1.03185549977028      1.90332190984166
  H           2.82484308300784      2.69970537010220     -0.01199779502131
  H           1.87568994918054      2.04915425597652     -1.38195804114497
  H           3.48297007854945      1.35463341007202     -0.99383728213893
