24
Coordinates from ORCA-job geoopt E -314.389090483777
  C          -3.63635736815945      0.00911790344329     -0.13595516933663
  C          -2.23556860253376      0.37416710861133      0.34842585615607
  C          -1.16179306133719     -0.56128870837202     -0.20737840424369
  C           0.24431166179585     -0.26147448433075      0.30127260322936
  C           1.32454419376710     -1.21049119768935     -0.23236418597539
  C           2.63027767396735     -0.49888034802343      0.13240774450030
  C           2.33105787038548      0.99843422282826     -0.11674574484108
  C           0.78361377332144      1.12828581662840     -0.09601409530148
  H          -3.69671630202238      0.05242070024766     -1.23000936382586
  H          -3.90533833207588     -1.00865408203177      0.17094644980318
  H          -4.39314384420982      0.69096605554509      0.26722531652651
  H          -2.00691977140516      1.40850906581304      0.05889063110445
  H          -2.20506845810680      0.34534756722702      1.44678105211347
  H          -1.42628438660536     -1.59830029523259      0.04801493205922
  H          -1.16087412829344     -0.50070966432612     -1.30680077946067
  H           0.24431040003037     -0.33676314294403      1.40071083395889
  H           1.24985838170828     -2.22119199557874      0.18527076043020
  H           1.22766158419292     -1.28883480776051     -1.32551116218401
  H           2.84889517524222     -0.66786213289003      1.19425655357210
  H           3.49223329335598     -0.85755232350750     -0.44024661193736
  H           2.80641573216963      1.63155759615779      0.63950241367754
  H           2.72652585658745      1.31294968355400     -1.08852440762119
  H           0.44025697042722      1.91624655765461      0.58204445209472
  H           0.40970262939796      1.38071312657635     -1.09737486119865
