26
Coordinates from ORCA-job geoopt E -315.591837479892
  C          -2.47291575396245      1.15438885192366      0.09650739387741
  C          -1.43819647427753      0.06373231275918     -0.19138980398090
  C          -2.06817734513276     -1.31597762680396      0.01940778527849
  C          -0.17899740602074      0.26078871962050      0.68174131063778
  C           1.19056134071185      0.02042545732839      0.00843288320901
  C           2.27585655377800      0.13803885565926      1.08671836330654
  C           1.27458932889126     -1.37066051743052     -0.62933819440841
  C           1.44716258328384      1.08783031818252     -1.06340283368077
  H          -2.07199949389155      2.15049390303297     -0.12394083834006
  H          -3.37968573486160      1.01249534090101     -0.50359238754591
  H          -2.76573532364708      1.13778460565430      1.15449231268942
  H          -1.15225343355816      0.14810402456717     -1.24926958994320
  H          -2.43276300761063     -1.41244844002857      1.05033307991960
  H          -2.92173337674974     -1.46699906134793     -0.65223413237643
  H          -1.35349403329934     -2.12573423016550     -0.15717162096234
  H          -0.16597723925859      1.28976345004030      1.06892281533052
  H          -0.25539311993439     -0.39482085404525      1.56234308430593
  H           2.24087065499913      1.12041966170972      1.57366446817018
  H           3.27471879939722      0.01244143036637      0.65136356617284
  H           2.14521457898493     -0.62820417663512      1.86050068390266
  H           2.27281762284782     -1.53256352386585     -1.05458262568573
  H           0.54649706489714     -1.48928213267684     -1.43958973707642
  H           1.09276356462380     -2.15802946388449      0.11199987279837
  H           0.70239753635790      1.04724585664509     -1.86627530772062
  H           2.43386087825840      0.94481488944359     -1.52046716927869
  H           1.41965358827326      2.09364310255000     -0.62654398339926
