19
Coordinates from ORCA-job geoopt E -402.193263379268
  C          -4.15065942783738      0.13890796441780     -0.13795977789860
  C          -2.80606606879653      0.00671421380540      0.57118662224992
  C          -1.62662961198465      0.08705065159875     -0.39620035269194
  C          -0.27985734777987     -0.03099792146251      0.32122656869480
  C           0.84817483829656      0.04637558983438     -0.67947870557426
  N           2.22059262941794     -0.03861265223286     -0.05283712082570
  O           3.18178842645967      0.03128672403676     -0.81277818000681
  O           2.31854119009098     -0.17206629706767      1.15935399785266
  H          -4.98394744873298      0.07587528163196      0.57009374853006
  H          -4.22686793590823      1.10017260873152     -0.65962386797479
  H          -4.28258498342252     -0.65549717050766     -0.88191061449750
  H          -2.76458516308922     -0.94858939688380      1.11179963979485
  H          -2.70700990720768      0.79756640428419      1.32710022306245
  H          -1.66800492317549      1.03942936061654     -0.94319998791484
  H          -1.71523006934543     -0.71110925903704     -1.14653348231049
  H          -0.23035633533813     -0.98183263470041      0.86454780596523
  H          -0.18046199521950      0.77644774702110      1.05596272885073
  H           0.85808356955426      0.98917549570484     -1.23710444612295
  H           0.82720843961821     -0.77246310699128     -1.40723361448280
