20
Coordinates from ORCA-job geoopt E -386.265759353117
  C          -4.16843242778260      0.18343315726125      0.36666164154599
  C          -2.87115777931378     -0.16518780258496     -0.35773462085152
  C          -1.62917149077562      0.21281516944510      0.44723417602529
  C          -0.32871086219849     -0.13817876744638     -0.27217295249850
  C           0.89523228611382      0.25326426550906      0.54490574769481
  C           2.19758575783981     -0.07508406023631     -0.11920540821827
  O           2.32879893728673     -0.64382373554735     -1.18980624534826
  O           3.26044071636012      0.33431179196958      0.61325626781972
  H          -4.22699930909619      1.25894671585342      0.57168104877754
  H          -5.04664114575603     -0.09172478369391     -0.22745684527469
  H          -4.23592816316527     -0.34207662058388      1.32658147953585
  H          -2.84701005810840     -1.24209628005247     -0.57432815997798
  H          -2.84118759325546      0.34751283349094     -1.32905310291089
  H          -1.64911942467597      1.29130026617831      0.66114347175973
  H          -1.65724585024577     -0.29800357772258      1.42069785802837
  H          -0.30128428272351     -1.21576011389672     -0.47842104959886
  H          -0.29599577351034      0.37064191779060     -1.24425330877902
  H           0.89515585779324     -0.24831128231192      1.52271741213323
  H           0.89939553939926      1.32920065553946      0.76525256307633
  H           4.07271360221444      0.09104148003873      0.13560629836114
