8
Coordinates from ORCA-job geoopt E -998.956350847327
  C          -0.64391312583805      0.98754194514922      0.38385945604444
  C           0.64391406955864      0.98752662517181     -0.38384285483181
  Cl          1.71937229520383     -0.42106499695017      0.06609443856314
  Cl         -1.71937859011216     -0.42105361324452     -0.06609195474121
  H          -1.19984124477108      1.89591896395330      0.13369308221523
  H          -0.48821553558596      0.93455577458854      1.46274552293396
  H           0.48818856070159      0.93453754233451     -1.46272614235663
  H           1.19982481564319      1.89593667499732     -0.13375275222711
