9
Coordinates from ORCA-job geoopt E -452.765121823876
  C           0.96893940768245      0.78941159838733      0.08286494816033
  C          -0.34818492466530      0.04382522039695      0.00042259994554
  F          -0.50979670019252     -0.58828945158262     -1.18671172414399
  F          -1.39126626596276      0.89504855037796      0.14796778603308
  F          -0.46268278075857     -0.90460001979992      0.96362740659667
  O           2.06898625655547     -0.08743124601298     -0.08314917160003
  H           0.98392571362203      1.51989730905361     -0.73201472693907
  H           0.99375983189685      1.32212702070570      1.04189778353717
  H           2.21966016872235     -0.54634295392603      0.75440062771031
