22
Coordinates from ORCA-job geoopt E -350.317965489485
  C          -4.15159564451537      0.25706999525197     -0.01581473966951
  C          -2.82895376287534     -0.49894566312879      0.07609604860445
  C          -1.61601328563616      0.42195224576442     -0.04396900853183
  C          -0.28805026054219     -0.32815261654530      0.04067726031489
  C           0.90698322970451      0.60671713120234     -0.07637989237944
  C           2.25375088251103     -0.05867681779907     -0.00207041495606
  O           2.37649909067644     -1.28083726008188      0.01714873502764
  C           3.44816821640723      0.84695228576374      0.06881031803664
  H          -5.00857078949113     -0.41912862850612      0.07544420176417
  H          -4.23137823834142      1.00712334903988      0.77997129267561
  H          -4.23926622203417      0.78012334470765     -0.97547136107707
  H          -2.78354722491499     -1.26075988854445     -0.71440882102882
  H          -2.77834091133398     -1.03959842587415      1.03130803607636
  H          -1.65791389153739      1.18213071192786      0.74968881190545
  H          -1.66682197171046      0.96659020913841     -0.99814427864702
  H          -0.23276223782841     -0.87331708937791      0.99238962878951
  H          -0.24173915083589     -1.08302554164841     -0.75472523066603
  H           0.88255703071648      1.39037369060650      0.69544167819798
  H           0.88534779802625      1.15522847126497     -1.03119707917817
  H           3.52961044003642      1.22029638881474      1.09817601183384
  H           4.36385558236054      0.30802594844790     -0.18310652814423
  H           3.32218009595799      1.72069018857571     -0.57788350114836
