12
Coordinates from ORCA-job geoopt E -360.566322484006
  C          -2.27405060762459      0.91464803551171      0.34046746260449
  O          -0.87124540163546      0.70798349039966      0.00860855584334
  C          -0.50408185864897     -0.55482080935433     -0.19656062870837
  O          -1.24043988592167     -1.51739751637684     -0.12650384440418
  C           0.96805631707050     -0.69540743093404     -0.54112278449672
  C           1.71775491079197      0.54166906136188     -0.56048600989591
  N           2.32913452690623      1.52362888374593     -0.57978396076222
  H          -2.90452050036061      0.55308663937657     -0.47495497111080
  H          -2.38138209511425      1.99150491317076      0.46257078625678
  H          -2.51486556295755      0.39427618706859      1.27026378096058
  H           1.03833701348576     -1.17645142971619     -1.52446224185982
  H           1.41948946050863     -1.38263494315371      0.18449504687282
