21
Coordinates from ORCA-job geoopt E -350.092520258426
  C          -2.65909398931972     -0.64967765719754      0.75098267576020
  C          -1.87526182963033     -0.46894794916091     -0.55594832499448
  C          -0.39564613842694     -0.31390294116962     -0.30802685510780
  C           0.41579365625458     -1.45187284448488     -0.27447138964665
  C           1.77847731439163     -1.36653566401800     -0.00131835880780
  C           2.35060121292469     -0.12146301553986      0.24213625068495
  C           1.55284673099678      1.01969503616718      0.21012872212786
  C           0.18248356623786      0.94670552615254     -0.06006668740875
  C          -0.63988427877599      2.20651547061362     -0.09872616271987
  H          -3.73157432187084     -0.74956811349487      0.55174125403670
  H          -2.51637985424354      0.20487574332786      1.42109223226220
  H          -2.32484868771498     -1.54989646280861      1.27836916909401
  H          -2.26431859793848      0.40029604094618     -1.09751568054426
  H          -2.04083340440779     -1.34481209370728     -1.19417344858106
  H          -0.03468307010277     -2.42350926806295     -0.46860158250201
  H           2.38812918643133     -2.26591622563046      0.01656111267838
  H           3.41290958658983     -0.03587882793735      0.45439513437047
  H           2.00075249102734      1.99321861449106      0.39747079822280
  H          -1.49694684405428      2.15422901855788      0.58159220395802
  H          -0.03389908261011      3.07143868972426      0.18418790751375
  H          -1.04114894555829      2.39058306463176     -1.10267032589667
