26
Coordinates from ORCA-job geoopt E -464.853521764254
  C          -3.81611968917874      0.49310962744515     -0.00606492324963
  C          -2.52211297017659     -0.21140855049653      0.40447604299789
  C          -2.47849147285093     -1.63969832687891     -0.13696675717901
  C          -1.34801712415998      0.61072598006708     -0.09401890549677
  O          -0.12067501501625     -0.00596076676250      0.40004294986020
  C           1.03722770559373      0.54512960834657      0.00499280026882
  O           1.09615038126169      1.53829340327503     -0.70413742273392
  C           2.22874935337951     -0.24073390313341      0.50005079941321
  C           2.45007565316468     -1.42307299963754     -0.45924415992383
  C           3.47022075472534      0.63845427101444      0.59987291485469
  H          -3.86714549144721      1.50988597159300      0.39869581720362
  H          -4.68589286996791     -0.06189345460947      0.35980033837936
  H          -3.89361540619607      0.55638783359388     -1.09843364194714
  H          -2.47132531284465     -0.24099310658468      1.50234275123961
  H          -1.56845797574128     -2.16447925167902      0.17070152494958
  H          -2.51446536246546     -1.63384819165905     -1.23367769377231
  H          -3.33699065836785     -2.21496233595497      0.22588067370052
  H          -1.31426719727319      0.62835447797514     -1.19052172748799
  H          -1.39086156457024      1.64025037123083      0.27871638621519
  H           1.97094570634729     -0.64022146940862      1.48821015797458
  H           2.67200404047732     -1.06045350615475     -1.46910890785564
  H           1.57076275534772     -2.07276217000362     -0.50640100181687
  H           3.30081614782978     -2.01889117726155     -0.11411860596002
  H           3.76632413307492      1.01134264446588     -0.38591268017850
  H           4.30156765245994      0.05460671093955      1.00681090779613
  H           3.30058969979443      1.49787908747808      1.25634784324823
