27
Coordinates from ORCA-job geoopt E -1070.847247473837
  C           2.98580182702757      1.90125938766286      0.20183968975242
  C           1.69991226314871      1.16855704695484      0.06216031636737
  C           1.53304614753000     -0.16854917509378      0.22915338413900
  C           0.25748938516488     -0.81679025798196      0.02081588485895
  O           0.12960116879907     -2.03815564828089     -0.04653200956209
  N          -0.85208761931371      0.05885216587650     -0.09349616388527
  C          -0.66189658800784      1.36719977107564     -0.52685845385712
  O          -1.51954595726720      2.06513511387317     -1.06345664309882
  N           0.60105635459699      1.88688736050652     -0.31263240439878
  C          -2.27480065397319     -0.48632326209421      0.05668377954895
  C          -2.74707714466546     -1.03996263104913     -1.28553764322713
  C          -2.30283912841592     -1.57464878483974      1.14502241558383
  C          -3.21529506407094      0.62818497935748      0.54944942648424
  Cl          2.89511525715148     -1.18717208129735      0.60197731661714
  H           3.42695432299334      1.70686133566396      1.18399127531760
  H           2.83832311229318      2.97648335753565      0.08279469811504
  H           3.70023397181402      1.55534091336337     -0.55305127378983
  H           0.71910668858625      2.85396437131780     -0.59266744716462
  H          -2.75263035464611     -0.25768626743441     -2.05092119805389
  H          -2.10556824883517     -1.86035579646549     -1.62058818006957
  H          -3.76763355197637     -1.42213991479384     -1.17659771899741
  H          -3.35015291719501     -1.74746988188683      1.40607444196201
  H          -1.78308073076496     -1.24230752999868      2.05029263019085
  H          -1.87672265383985     -2.52078122020685      0.82055997323979
  H          -4.13184119625039      0.14843159532392      0.90242335122778
  H          -2.77748150224224      1.17408281279005      1.39235079472551
  H          -3.48583980734111      1.33797066982143     -0.22863635802595
