16
Coordinates from ORCA-job geoopt E -400.854832914028
  C          -2.46073544813710     -1.20744435261499     -0.00246856744657
  C          -1.70080301764394      0.08389979342216     -0.00051039109669
  O          -2.28600145900569      1.16610645171006      0.00101857547005
  C          -0.21100069922166      0.04428301932439     -0.00037930842949
  C           0.52072725558346      1.23608187523429     -0.00130156527389
  C           1.90343600279190      1.17204697000008     -0.00111576079170
  C           2.51304812041258     -0.07860111323642      0.00012169297096
  N           1.83439380783380     -1.23569725159878      0.00117578084365
  C           0.49796491928110     -1.16052615670737      0.00083750233346
  H          -3.53239722713747     -1.00390495272178     -0.00407060456789
  H          -2.19920223611432     -1.80425556254229      0.87900124399317
  H          -2.19619726452440     -1.80381519133892     -0.88329466684801
  H           0.00301465692563      2.19032380042618     -0.00226331484670
  H           2.50843434983681      2.07305860479220     -0.00192014170281
  H           3.59860720493094     -0.15653382525883      0.00025582257686
  H          -0.02794034911164     -2.11220484138998      0.00174905431560
