32
Coordinates from ORCA-job geoopt E -1025.037047084082
  C           2.45485720038000      3.01466868367056      1.07281395679396
  C           1.93735106344965      3.04463246836297     -0.36027132561390
  N           0.51030476934980      2.74028429152917     -0.46244120273431
  C           0.00393611680383      1.49522932645812     -0.31410677833593
  N           0.84438664358369      0.44952984281156     -0.38883838630370
  C           0.25876904936842     -0.75126420424557     -0.26595345508563
  N          -1.07553787396427     -0.96231272083879     -0.08457934526625
  C          -1.78578175733152      0.15748359669992     -0.03580307937407
  N          -1.33837965025507      1.41207206575774     -0.13451659203778
  S          -3.54242085373849      0.06544719371442      0.19525097686695
  C          -3.84789334435687     -1.72945114344232      0.29870298510755
  N           1.02259856709663     -1.85888374068108     -0.35516370511236
  C           2.48946017728645     -1.86297329347200     -0.29285332815561
  C           2.99194465875654     -3.19448881580104     -0.83499756693121
  C           2.98344487825672     -1.61744050632189      1.13233223878375
  H           3.52200780824212      3.26117925431590      1.09048814730077
  H           1.92474098564156      3.74492904820462      1.69349618959462
  H           2.32501179949471      2.02238410017531      1.51710141812517
  H           2.49250707994748      2.34001088644052     -0.98485547306857
  H           2.08058123980555      4.04086080456472     -0.79057270070663
  H          -0.12971756961228      3.48831946689246     -0.23304524178061
  H          -3.55147792081994     -2.23161016765273     -0.62397734619588
  H          -4.92779319421496     -1.83592638167293      0.43681878588299
  H          -3.33029495664352     -2.16671464039658      1.15441732961250
  H           0.55676424616153     -2.72716323567287     -0.12562681709044
  H           2.84687943370796     -1.05548939869264     -0.94044382259376
  H           4.08475562171622     -3.22243459920023     -0.79388656810685
  H           2.60966357941559     -4.02700958730370     -0.23161254353434
  H           2.68253519670183     -3.34662958709883     -1.87390214887277
  H           2.59262848686509     -0.67482153633757      1.52850733722787
  H           4.07755640640814     -1.56963618168781      1.14926890014554
  H           2.66409960329740     -2.43224727167941      1.79265666285894
