17
Coordinates from ORCA-job geoopt E -346.950683552819
  C          -3.00784972563641     -0.07364020297791      0.00199817194423
  C          -1.66387146787858     -0.65302894601143     -0.40959385105409
  C          -0.49380000328511      0.16596232831484      0.05898676329863
  O          -0.56894305055342      1.21489781713441      0.67918796040052
  O           0.67606321804268     -0.39708209419995     -0.29244820171603
  C           1.89132580848342      0.31541371044569      0.10059363964721
  C           3.06258408552075     -0.49153861389735     -0.39829004477148
  H          -3.09423696203713     -0.00885413707179      1.09079018109035
  H          -3.15093383124298      0.92913005731366     -0.41142313692341
  H          -3.81637337059500     -0.71171214957748     -0.36594993496211
  H          -1.58361371626649     -0.73871624151971     -1.50087644427410
  H          -1.52998232598216     -1.67027140295800     -0.02088825604838
  H           1.86439235853313      1.31545937817203     -0.34450259741366
  H           1.89677545918170      0.41335779408925      1.19113777291573
  H           3.03954920574079     -0.58850698611606     -1.48808804119123
  H           3.99049440499113      0.01733465699961     -0.11901583522464
  H           3.07211765868370     -1.49084592933980      0.04765870238246
