26
Coordinates from ORCA-job geoopt E -540.566948069432
  C          -0.00075008086241     -2.50139350792637      0.00293344090542
  C          -0.00044452059134     -1.15793017219908      0.00120401874564
  C          -1.27284877617222     -0.39453496021052      0.03665483421952
  C          -2.39802744874299     -0.83582397760056     -0.67276540536918
  C          -3.60069288787866     -0.14047613230603     -0.60068262047010
  C          -3.70128613015865      1.00979609499908      0.17912731962302
  C          -2.58680234333259      1.46270707022332      0.88261384058958
  C          -1.38193533359858      0.77242720478531      0.80645235651276
  C           1.27256019247128     -0.39554859277890     -0.03596775442411
  C           2.39641977421683     -0.83456262661197      0.67688939723845
  C           3.59961447485847     -0.14021218711205      0.60366247232345
  C           3.70199722870891      1.00669170625411     -0.18084113063550
  C           2.58882717600135      1.45724054750703     -0.88793999227952
  C           1.38342129835749      0.76804914841343     -0.81056966658489
  H           0.92486159486559     -3.06563285111223     -0.06397674484656
  H          -0.92651850791602     -3.06519400564270      0.07131662678390
  H          -2.32158115864385     -1.72039909625607     -1.29925953305431
  H          -4.45989848708843     -0.49271847989852     -1.16487206519757
  H          -4.63984313904328      1.55424345846036      0.23229905893117
  H          -2.65560346481044      2.35820981243256      1.49407708120817
  H          -0.51936004380397      1.13145152851899      1.36154393403312
  H           2.31846443479978     -1.71650999166709      1.30689776999632
  H           4.45779560603965     -0.49058583796977      1.17056855801034
  H           4.64094339161796      1.55037674881147     -0.23493619451098
  H           2.65909340051497      2.35009645821333     -1.50309620196852
  H           0.52180579709112      1.12526358077287     -1.36832359817961
