11
Coordinates from ORCA-job geoopt E -416.235951308078
  C          -3.65756066236552     -0.02946554547415     -0.00027833007322
  C          -2.22092483552249      0.50121702282935     -0.00055471273397
  C          -1.25208121388623     -0.65938602129129     -0.00019048155073
  I           0.83940215578883      0.02245946100252     -0.00056136457247
  H          -3.85250359678288     -0.64262515857667     -0.88688029399155
  H          -3.85245117149318     -0.64185628004022      0.88686616763115
  H          -4.37030391833135      0.80169707264282     -0.00061466536624
  H          -2.05413410495673      1.12811618938019      0.88237805798243
  H          -2.05426052706666      1.12749322815995     -0.88395120907162
  H          -1.32744503854129     -1.27782425777119     -0.89518133794284
  H          -1.32736570454249     -1.27729276566131      0.89516839348906
