14
Coordinates from ORCA-job geoopt E -345.503966493848
  C          -2.24273281222663      0.26949685076215     -0.00094638215044
  C          -1.77777195937179     -1.04394282507858     -0.00051010638170
  C          -0.41024453999791     -1.28998635055309      0.00016322376995
  C           0.49337639134744     -0.22019066749340      0.00038715333704
  C           0.02066011585434      1.10032231690692     -0.00005269067547
  C          -1.34416802769958      1.34019454798270     -0.00071276819438
  C           1.92745464429646     -0.51724880890143      0.00108096314119
  O           2.81579767213118      0.32901482069055      0.00123607275754
  H          -3.31162905995996      0.46378535598464     -0.00146534586952
  H          -2.48112787082876     -1.87116931824047     -0.00069051271073
  H          -0.03208909790441     -2.30972623176849      0.00051976939847
  H           0.73029158812130      1.92276623566054      0.00013386015378
  H          -1.71765880089156      2.35995347891366     -0.00104456879497
  H           2.18437969742988     -1.59562350546569      0.00145733951925
