16
Coordinates from ORCA-job geoopt E -234.514756231364
  C          -2.96412642706643      0.35602770349577     -0.13337620789566
  C          -1.74848591302902     -0.49242363806675      0.22776014232400
  C          -0.43483442561000      0.21338149290785     -0.09704508345383
  C           0.78432836227742     -0.65088587062412      0.26780903798581
  C           2.04719254365040      0.00963584803736     -0.01637525929471
  C           3.07848494230418      0.58860930826762     -0.26162902579778
  H          -3.89812413304532     -0.16244625908406      0.10808021561752
  H          -2.97734918757662      0.58820023137311     -1.20464645422818
  H          -2.95711839354650      1.30588958366199      0.41384404885954
  H          -1.77154505296266     -0.73702870694403      1.29838660205828
  H          -1.78904962777345     -1.44809543582745     -0.31228962890202
  H          -0.39618812457571      0.45571661643219     -1.16673332664806
  H          -0.37803485094184      1.16348550444320      0.44933315986455
  H           0.74279701482883     -1.59926518332416     -0.28394531787936
  H           0.74724993322593     -0.90798419479351      1.33471926233983
  H           3.99466646774079      1.09154929904500     -0.47751451984993
