12
Coordinates from ORCA-job geoopt E -703.577452636270
  C          -2.17099631083841      0.00139031555282     -0.10549073621935
  O          -0.88665693132475     -0.46164508411252     -0.63074601250441
  S           0.44542224679503     -0.05684363213895      0.21597042234252
  O           1.51845671532887     -0.80136579569091     -0.45368376874835
  O           0.20455728001125     -0.28104448212675      1.64974538499860
  C           0.63537491440164      1.69583115049571     -0.08839566265053
  H          -2.31264550326084     -0.34983625275583      0.91898374131545
  H          -2.91249841156401     -0.45097771333361     -0.76422350749008
  H          -2.23735332442936      1.09122359310065     -0.16360739740761
  H           1.56615837342814      1.99917789632311      0.40006842878816
  H           0.69299465030017      1.85442995387782     -1.16792363021156
  H          -0.21199614884773      2.22810581330844      0.35094912408714
