24
Coordinates from ORCA-job geoopt E -463.653377775664
  C          -3.55678008421327     -0.45804853879479     -0.12586637429679
  O          -2.17198540839058     -0.45184015014887     -0.55847468175641
  C          -1.30399805706585      0.19728604956282      0.24226040472991
  O          -1.65051367400246      0.77933958024721      1.25834899497762
  C           0.11309074846125      0.06440423997778     -0.24515206274275
  C           0.70387547229947     -1.25197692884012      0.30909743174636
  C           2.14813998010802     -1.42880238151682     -0.16136185333552
  C           3.01343499324497     -0.22895882509247      0.22688643579011
  C           2.41685636712732      1.07430075428613     -0.30750896858442
  C           0.97573553730629      1.25916658797818      0.17055318816133
  H          -3.94244960146578      0.56353703718861     -0.07588579814012
  H          -3.64594887956213     -0.94161113274433      0.85049527910476
  H          -4.09346717307808     -1.02932664703868     -0.88308812615970
  H           0.08859052566690     -0.01086102469290     -1.34051772341985
  H           0.67284862691698     -1.21465545913751      1.40726931726250
  H           0.08857618234924     -2.10110316794276     -0.01051204698264
  H           2.56029940525964     -2.35211805651335      0.26371684203452
  H           2.15720579636425     -1.54570763743995     -1.25450497506942
  H           3.08050400288175     -0.17207566816959      1.32304508016173
  H           4.03472647011675     -0.36219920352202     -0.15048392858344
  H           3.02393582548322      1.93038157270110      0.01079730464853
  H           2.43599083876557      1.05931109190356     -1.40681783459826
  H           0.96122738377546      1.34594245600018      1.26500667119810
  H           0.54978988335108      2.18507891054858     -0.23496638264617
