19
Coordinates from ORCA-job geoopt E -348.114983673387
  C          -3.58885858127233      0.27018073486335      0.08910266835385
  C          -2.19542360160160      0.34761997476995     -0.52900535095724
  C          -1.15348021706797     -0.26034977590608      0.38793698250233
  O           0.13415968156444     -0.15478673913938     -0.23197013659408
  C           1.16833833786025     -0.72143453561017      0.57591736058537
  C           2.49180452735513     -0.47931469245725     -0.10609641152837
  O           2.83193741109921      0.91540356416706     -0.17001954214644
  H          -3.62936947077301      0.81129008431645      1.04124077683232
  H          -4.33766518869004      0.70897154180608     -0.57738053639176
  H          -3.87897194625674     -0.76906906732023      0.28102627880747
  H          -1.92960902170681      1.39345902440262     -0.72902300158484
  H          -2.17964409743012     -0.18131885486736     -1.49038191620775
  H          -1.13960167881755      0.26404039741600      1.35794515122944
  H          -1.38262690428500     -1.32141128713411      0.58312975969107
  H           1.16298979241931     -0.25784587309973      1.57594062666853
  H           1.01152788585842     -1.80629812210348      0.69646815839625
  H           2.47963379402724     -0.91692325697290     -1.11528312749505
  H           3.28316524296992     -0.96870897109691      0.47051195047625
  H           2.15010343404725      1.34901135756609     -0.69977689293737
