23
Coordinates from ORCA-job geoopt E -276.289979370504
  C          -3.31633448074611     -0.41408946568738     -0.07681338489840
  C          -2.01572863526073      0.26716541754826      0.34297876871272
  C          -0.78648414487919     -0.42011559400098     -0.25204527053993
  C           0.56539369267163      0.11585595495308      0.23948500716508
  H           0.57859025051615      0.04004607699981      1.33926435594892
  C           0.76387702252780      1.58407898484733     -0.14098043926671
  C           1.70024934952675     -0.76628115426374     -0.30187258397130
  C           3.08871114542820     -0.41580243962686      0.22941285040302
  H          -3.42685550045039     -0.40993361694929     -1.16785325089960
  H          -4.19073989604650      0.09055622138833      0.34864238943694
  H          -3.33864990434362     -1.45903411678913      0.25460494238293
  H          -2.04627585970755      1.31987783047376      0.03581139825245
  H          -1.93531471695796      0.26464180740287      1.43931885544460
  H          -0.84143063879980     -1.49349682498661     -0.01744797021988
  H          -0.82262700119460     -0.34174335519878     -1.34996425375027
  H          -0.02654568647504      2.21986880595311      0.27035696799112
  H           1.71689145816925      1.97295038752923      0.23196538462731
  H           0.75616484945734      1.70069252257028     -1.23306763607724
  H           1.69986271868308     -0.70683161755581     -1.40056234836817
  H           1.47556837866513     -1.81149602009430     -0.04876765111300
  H           3.09666006595112     -0.40116299178535      1.32622373203021
  H           3.42788742939267      0.56460669051375     -0.12040496281559
  H           3.82951438447237     -1.15334245874158     -0.09841537007521
