22
Coordinates from ORCA-job geoopt E -421.473398975969
  C          -3.50850752010756      0.43608345554474      0.59013468924052
  C          -2.11825923509450     -0.15734577424396      0.37109706597965
  C          -2.11999751235432     -1.12675105087251     -0.80987011435039
  C          -1.09542801642210      0.98139772997458      0.16478847285856
  C           0.30969908289061      0.48493206215482      0.02333486159582
  C           0.92868894674712      0.40188800742804     -1.22802351285682
  N           2.16691719692628     -0.06971987255873     -1.39634239973555
  C           2.79975059181064     -0.46620603771444     -0.28422624657342
  C           2.19882941093764     -0.38505219987380      0.96340542633616
  N           0.95784992931147      0.08681614262788      1.13019204082749
  H          -4.24564852682070     -0.35325820390094      0.77443948177307
  H          -3.83146131132878      0.99765292316622     -0.29556922366690
  H          -3.52044423803692      1.11966658663075      1.44650675686074
  H          -1.82649215374380     -0.70812574189896      1.27681391697995
  H          -1.14492516654553     -1.60835831442109     -0.94559073272547
  H          -2.86446188186706     -1.91653856617232     -0.66056043165116
  H          -2.36826887436800     -0.60015711778668     -1.74032206145287
  H          -1.14723744576915      1.66534228636863      1.02041715813482
  H          -1.37401096678231      1.54557214549076     -0.73434276625318
  H           0.39754334756563      0.73148586256774     -2.11955821158825
  H           3.81013482754218     -0.85464712859288     -0.38978440480061
  H           2.73426827420916     -0.70705233131785      1.85463362476784
