31
Coordinates from ORCA-job geoopt E -1915.810843711394
  C          -0.62081696073539     -1.96519872836234     -0.77075783112753
  O          -0.99339477859889     -0.66158870190901     -1.29637354832477
  P          -2.29234238109863      0.08777435919168     -0.71428908159049
  S          -3.97959233212731     -0.87457952450503     -0.73673919026517
  O          -2.12896927422891      1.39466674360615     -1.63690763772945
  C          -3.11607617149171      2.45964032208106     -1.53659233301455
  S          -1.87471125347886      0.65723449113466      1.27130538943442
  C          -0.37697279120609      1.74431569382892      1.06805701915357
  N           0.81210518913664      1.03592202346385      0.63707734054789
  C           1.42122924741120      0.11762720696760      1.49583107957043
  O           1.01660140225018     -0.02801202466630      2.64924192533545
  C           2.52165862557257     -0.59254210921416      0.87830454598140
  C           3.24359082444120     -1.57445140282379      1.56497638407216
  C           4.27031037567002     -2.23776484462986      0.91726086584951
  C           4.58919545542317     -1.93168666386596     -0.41491004733125
  C           3.88503101361164     -0.96208957790217     -1.10301438882383
  C           2.84099077882091     -0.28676928840887     -0.45711165619260
  N           2.15040608893489      0.68014813055913     -1.17794688633897
  N           1.18104638610367      1.29689086428780     -0.65733872515052
  H          -1.39252544674131     -2.70199301160425     -1.01102608474396
  H          -0.46737204688393     -1.91487011186664      0.31228658969367
  H           0.31437741834121     -2.22404892715298     -1.26851411035601
  H          -2.75552619598149      3.25185536496612     -2.19279980197937
  H          -3.18227784058189      2.82713272238402     -0.50784429735600
  H          -4.09124577245544      2.10066938182560     -1.87654419474404
  H          -0.21698273634006      2.17839278173150      2.05886102253746
  H          -0.58656281475167      2.53248318657122      0.34296069981991
  H           2.98787742865086     -1.80519421616803      2.59402001477159
  H           4.83498594565089     -3.00187775491240      1.44223650369420
  H           5.39799633398947     -2.46196942952006     -0.90817778556136
  H           4.12051674019305     -0.71320851138748     -2.13307574063181
