33
Coordinates from ORCA-job geoopt E -469.410738916977
  C           6.42782368209125     -0.37087555509547     -0.00347424822552
  C           5.15743622576948      0.47504784942694     -0.02258925914204
  C           3.88484607772994     -0.36991167417308      0.01042024429712
  C           2.60569861274217      0.46484882099841     -0.00635177044017
  C           1.33382997794372     -0.38118812443410      0.01886772057686
  C           0.05510971685983      0.45461467824683      0.00534993668792
  C          -1.21659152915283     -0.39167057369909      0.01703919692259
  C          -2.49343438084085      0.44708232192536      0.00810245687499
  C          -3.76369172647163     -0.40279028846590      0.00048476063386
  C          -5.01956027601443      0.45265746651857      0.00058560455962
  O          -6.22740957953245     -0.33446393765838     -0.01679463630601
  H           6.46350345244569     -1.04536006121406     -0.86723703527022
  H           6.47530799376598     -0.98793667019288      0.90164747636852
  H           7.32790498612257      0.25308606280364     -0.02972121759369
  H           5.15806630609039      1.16063781079430      0.83621104145844
  H           5.14826454788506      1.10611973099885     -0.92214565075996
  H           3.88366244338901     -1.05515058527471     -0.85016713711780
  H           3.89453259142719     -1.00342784091862      0.90968054924034
  H           2.59970243721598      1.10163336383330     -0.90321075491425
  H           2.60567189007353      1.14640927276560      0.85699863926128
  H           1.33266589611692     -1.06020988059962     -0.84647969893115
  H           1.34032490639953     -1.02055866159119      0.91384889913823
  H           0.05274452116941      1.10000707805771     -0.88532017765738
  H           0.05183638579223      1.12758545128979      0.87536782980672
  H          -1.21433821230762     -1.04044221773142      0.90493784334541
  H          -1.21602556022022     -1.06027144911082     -0.85612708043228
  H          -2.48961399200370      1.10389176760545     -0.87363757872514
  H          -2.50117117123841      1.10664489672840      0.88789398646202
  H          -3.77100855456892     -1.04731961983075     -0.89062065797022
  H          -3.77737893008960     -1.06340120151730      0.87821645913296
  H          -5.00870316387006      1.14218775671754     -0.85739944531487
  H          -5.07185980729943      1.05631017401105      0.91380179018138
  H          -6.22106785981972     -0.84461756901436     -0.83721513974756
