22
Coordinates from ORCA-job geoopt E -292.314339714702
  C          -0.80901647993398     -1.84880878781281      0.28646054788580
  C          -0.33447109363407     -0.86053920968876     -0.78018039352212
  N           0.20126127087341      0.43262741228314     -0.30751152039851
  C          -0.80128237390360      1.20815058016539      0.44816142320747
  C          -2.08199158418111      1.49861648934093     -0.31883975545601
  C           1.38611005912517      0.26329430637524      0.55570554989887
  C           2.53268207892362     -0.49856963335838     -0.09053474836945
  H          -1.62454165860391     -1.44069060050655      0.89304545429353
  H          -1.18268275630071     -2.75528543413724     -0.20256263602581
  H           0.00060904783246     -2.14738088066774      0.96092714373919
  H          -1.16145086035556     -0.64600612224263     -1.46595049150664
  H           0.43875504866172     -1.33622497454326     -1.39352162117377
  H          -1.05759006704551      0.71422002793702      1.40499130398022
  H          -0.32708322212350      2.16058246613033      0.71861750980003
  H          -2.68215648022986      0.59909362775494     -0.48839670985873
  H          -2.69643995677680      2.19563836470102      0.26095983755020
  H          -1.87513991897230      1.96301020323379     -1.28959384353365
  H           1.73395353754255      1.27101357022058      0.81773484340576
  H           1.12242989469906     -0.22533126758371      1.51331196003193
  H           3.40988537448254     -0.44773492056544      0.56328532203268
  H           2.29985017514788     -1.55742394245814     -0.24119062797093
  H           2.81109738027248     -0.06577189067774     -1.05798878971006
