20
Coordinates from ORCA-job geoopt E -386.246943062721
  C          -1.25445985601960     -0.86806392830838     -1.31535055883429
  C          -1.00362251692792     -0.12316107042436      0.00766428655491
  C          -1.23754290747540     -1.06956281098708      1.19694042759234
  C          -1.93823484064555      1.08236026790446      0.11017306505582
  C           0.44181766520130      0.35704119637213      0.02627399383447
  O           0.79866941906487      1.52382476513008      0.06201999691662
  O           1.31551186393721     -0.66422900481096     -0.00969511870028
  C           2.72010965581118     -0.30439688940488     -0.00778771484559
  H          -1.04476791036292     -0.22274638079562     -2.17569050528629
  H          -0.63623894504831     -1.76684264769510     -1.39375707132390
  H          -2.30678918383532     -1.16840461760778     -1.36156387224306
  H          -1.00821159390282     -0.57214988327327      2.14592116097266
  H          -0.62604855608815     -1.97271696621280      1.11959637515105
  H          -2.29125535160319     -1.36800256137614      1.21338230265675
  H          -2.97580985818879      0.73343659286606      0.09667709000953
  H          -1.77438967344687      1.63570928440897      1.04041945954969
  H          -1.79711415153340      1.77012854388955     -0.72946845621727
  H           2.96880008066034      0.24646312832981      0.90304235233350
  H           2.95792949437982      0.29851227366140     -0.88807547978439
  H           3.26024947362352     -1.25056955216607     -0.03850942979227
