24
Coordinates from ORCA-job geoopt E -389.391163217217
  C           2.02887350945967      1.91480262830859     -0.40920827242929
  C           2.30421309711247      0.41614369552417     -0.47781056598013
  C           1.44848508288656     -0.40917644002955      0.49932007728161
  H           1.65571048700123     -0.03950445798648      1.51373447637510
  C           1.83672955636895     -1.89088189787750      0.44091378734895
  C          -0.03162009483003     -0.21272262766957      0.24543769420625
  C          -0.84867729803484      0.38962807062036      1.20533596529692
  C          -2.20913104884916      0.58606823553434      0.97066544945730
  C          -2.77538354830002      0.18176810621427     -0.23507473760760
  C          -1.97030200658291     -0.41935032589328     -1.20233205723643
  C          -0.61296585813581     -0.61392269754531     -0.96367454980837
  H           2.17767810266695      2.29499794954822      0.60866725596855
  H           2.69784261567977      2.46972241581475     -1.07561895497139
  H           0.99855812066633      2.14547810797329     -0.70315462738367
  H           2.13392117179321      0.04977819757446     -1.49969744036728
  H           3.36096475082058      0.22392263917383     -0.24934237191486
  H           2.89523176312103     -2.01908314356732      0.69392700292284
  H           1.24314523349694     -2.48432736184126      1.14471398243688
  H           1.67999638435507     -2.29979307825405     -0.56382976726166
  H          -0.41183343821427      0.71107462887539      2.14856765140576
  H          -2.82594651882065      1.05703466696319      1.73160427785714
  H          -3.83493851855956      0.33343996570279     -0.42177534099409
  H          -2.40273654908782     -0.73749221193923     -2.14743328462672
  H           0.00196386528631     -1.08063447502410     -1.72968784857581
