25
Coordinates from ORCA-job geoopt E -389.603795598554
  C           4.93213831437026     -0.67918890867444      0.01771211727857
  C           3.67883523250820      0.18353759638707     -0.10407822291696
  C           2.39026841425795     -0.62137304735941      0.05805917215096
  C           1.12871914669163      0.23164037418846     -0.05983244460920
  C          -0.15828272821351     -0.57554109934060      0.09844941669665
  C          -1.41493978928338      0.28491797752564     -0.01711177382787
  C          -2.68937825329835     -0.53142485187796      0.13701146080686
  C          -3.96171702612178      0.23439976487444      0.04015231021585
  O          -4.03930600539833      1.43917543529395     -0.15058340957734
  H           4.94289988294658     -1.46610839903706     -0.74582095018378
  H           4.97932081509699     -1.16732464816402      0.99841745811161
  H           5.84400338032794     -0.08417462078588     -0.10336247544521
  H           3.67020125988400      0.68525471646299     -1.08171914732130
  H           3.70449289198443      0.98007340436601      0.65254467377610
  H           2.36368735665359     -1.41778446976546     -0.70033148970456
  H           2.39906719452207     -1.12531493290414      1.03584350791088
  H           1.12162304291625      0.73718658366205     -1.03657951574367
  H           1.15448718559498      1.02580865154383      0.70064398481433
  H          -0.15330450844508     -1.08287378494893      1.07403215352621
  H          -0.18819397336413     -1.36743602404965     -0.66392088011228
  H          -1.39385571882809      1.07294625409226      0.74719205737618
  H          -1.42528314071351      0.79389119290931     -0.98994554524057
  H          -2.75606808845027     -1.33469680260660     -0.61513804412463
  H          -2.72214762676473     -1.06380407904473      1.10176845767391
  H          -4.88840351637372     -0.36597754114713      0.15384241636926
