15
Coordinates from ORCA-job geoopt E -556.562585368628
  C           3.09591055454401      0.42662678914158      0.16676034636724
  C           1.88935244623484     -0.30609546538436     -0.41359429169182
  C           0.56770582490533      0.21647847497562      0.15394584688082
  C          -0.62537479882493     -0.52286352004274     -0.43256957698862
  S          -2.25452264635942      0.04830870253864      0.23201538319779
  H           4.03378449710796      0.04153148384686     -0.24761290705362
  H           3.13853053192687      0.31173872096810      1.25608456204781
  H           3.04741659464868      1.49927821719261     -0.05409149220251
  H           1.97261128754106     -1.38114193424984     -0.20419814841913
  H           1.88213574519460     -0.19955343386424     -1.50669743569721
  H           0.47617080984184      1.28957343831694     -0.06282947043409
  H           0.56577704274099      0.10928752199746      1.24631572706721
  H          -0.64613121845144     -0.43754595372513     -1.52390368113887
  H          -0.58334530895294     -1.58938971125580     -0.18400032290731
  H          -2.16135874949747      1.31619393934429     -0.21126102972770
