21
Coordinates from ORCA-job geoopt E -461.454015560814
  C          -3.78501318478780      0.83510540689279     -0.89799159163532
  C          -3.08164974768585      0.08945460074901      0.21146324792431
  O          -1.73123326412674     -0.17221902981826     -0.19967135052535
  C          -1.00071590200130     -0.88076018500580      0.79869858308243
  C           0.40685867960834     -1.09188762608358      0.32077054992617
  O           1.05074608934952      0.21351469578299      0.25706958943086
  C           2.32688504234008      0.23128023947416     -0.16924594976756
  O           2.92940214195408     -0.77648619404179     -0.50424369615025
  C           2.90651063400593      1.60793394689362     -0.14418756794703
  H          -4.81847114719962      1.04413648201836     -0.60393358285632
  H          -3.28839212022041      1.78881182041953     -1.10480750233512
  H          -3.80405110605537      0.24191917717348     -1.81812248814679
  H          -3.58827917476171     -0.86485042395764      0.42691715592024
  H          -3.07215639336019      0.68282015225108      1.13940867011895
  H          -1.00480331160793     -0.32148661379794      1.74791523936573
  H          -1.45303756991500     -1.86875194263787      0.98234698084720
  H           0.42629278621530     -1.54853487632534     -0.67437388943564
  H           0.95230755185344     -1.73031777918787      1.02350097457182
  H           2.14713940612268      2.36701956921474     -0.34149114752509
  H           3.72169451991783      1.67846969195243     -0.86561732193808
  H           3.31367306705473      1.78667587683389      0.85826792717483
