14
Coordinates from ORCA-job geoopt E -307.650198663356
  C          -2.57306070873042      0.62351570710151     -0.00786410395035
  C          -1.39831515836567     -0.32067830214242     -0.00383404949074
  O          -0.18537627404631      0.49741503448439      0.02597699923432
  C           0.98449992882846     -0.16397791563464      0.04310096093531
  O           1.06124751035127     -1.38305276299204      0.01435626919525
  C           2.15418157036433      0.76198277933426      0.13585919553800
  H          -3.49867433578481      0.03987752375975     -0.03026632880534
  H          -2.58225205023060      1.24625887264881      0.89196579738671
  H          -2.55541954788879      1.27220892600673     -0.88902800138201
  H          -1.37074029255394     -0.94430982848712     -0.90326147674354
  H          -1.39727446016554     -0.97023187171127      0.87758333717685
  H           3.03576857131294      0.28808542865555     -0.29827144881589
  H           2.35219666502480      0.95379422347258      1.19726409892593
  H           1.95014803878427      1.71829704560391     -0.34944963460449
