8
Coordinates from ORCA-job geoopt E -5226.881215571510
  C          -0.44367380165426     -0.60534190315364     -0.00008965025310
  C           0.44377767342702      0.60575584225451     -0.00013004621256
  Br          2.33334392707548     -0.03019951632467      0.00009077172971
  Br         -2.33323221827518      0.03062503708149     -0.00018191268597
  H          -0.33600852207029     -1.21333383506294      0.89753724257332
  H          -0.33598141855830     -1.21341118104059     -0.89766075570271
  H           0.33618042751055      1.21370128885584     -0.89779625553879
  H           0.33602478294497      1.21387515768999      0.89739970929010
