33
Coordinates from ORCA-job geoopt E -843.689934690305
  C          -3.00494911967065      1.15313046456717     -1.85662441741684
  C          -2.97668286825639      0.68656733437194     -0.40274186725302
  H          -3.99161568676571      0.43290375465981     -0.07267416762561
  C          -2.10463218297165     -0.54405671471299     -0.21631216187997
  C          -2.66406906642785     -1.78188595050307      0.09873160967143
  C          -1.85518163474809     -2.91039540067870      0.23322414696462
  C          -0.48276437602944     -2.81126108042146      0.06110136743215
  C           0.09414133989699     -1.56781001743322     -0.22892526021635
  C          -0.72251163850390     -0.44239170928550     -0.37198297891305
  C           1.56336978907725     -1.48487342708136     -0.43393934579658
  O           2.18354580825204     -2.45663013549615     -0.87705076321127
  C           2.28194662713794     -0.22716501539721     -0.10348940255818
  C           3.43455721286739      0.10037757708648     -0.82978376983576
  C           4.15066593685998      1.24842586661726     -0.52137186248986
  C           3.74011410080872      2.06552977384775      0.53221821339834
  C           2.60787938750596      1.73419824782081      1.27270696846184
  C           1.87189202110306      0.59926404374058      0.95140047512829
  C          -2.48371966715905      1.78114871557130      0.52317958498108
  O          -1.95986844792566      2.82200897315949      0.17123450116006
  O          -2.67644752745885      1.46397517214813      1.82076165648611
  H          -3.39988285127113      0.35296687141667     -2.48890597000113
  H          -3.64428887387492      2.03391922169273     -1.96856552460872
  H          -2.00017384391195      1.40662520894560     -2.20754405379171
  H          -3.73915287137217     -1.86484069663869      0.23665243156677
  H          -2.30356477386107     -3.86862375768686      0.47854657030112
  H           0.15404145478313     -3.68408248203864      0.16900058490393
  H          -0.28038529842997      0.51761023740054     -0.62680084954965
  H           3.74939216269769     -0.54274061823253     -1.64637704118960
  H           5.03137391578851      1.50922720790426     -1.10095866117067
  H           4.30629750563456      2.95966692027298      0.77747016037099
  H           2.29617479591701      2.36145552673439      2.10263403812055
  H           0.99687212964550      0.33947031928527      1.53966700603251
  H          -2.31761149763728      2.18181341186323      2.37151975202820
