20
Coordinates from ORCA-job geoopt E -535.514860752222
  C           0.08866235887469     -2.56717763197177      0.11005930927578
  C          -0.07646553930284     -1.08060340954998      0.22463425379409
  O          -1.24594554288417     -0.70522573597175     -0.51432988248526
  C          -1.71106272247491      0.56289577685557     -0.31662355634326
  O          -1.17865644010093      1.34583569162017      0.44524410596651
  C          -2.90796982509642      0.83630504156238     -1.16073592231392
  O           1.03015231038841     -0.41624014430698     -0.41966542193152
  C           1.88133499710266      0.31500952919681      0.34929426057192
  O           1.82957840883881      0.34524262031942      1.56364977533418
  C           2.85618806803014      1.06069442361698     -0.49830476513298
  H           0.18095475284680     -2.86511024173363     -0.93836027689796
  H          -0.77410133137815     -3.06902750749687      0.55635462225657
  H           0.98964843901575     -2.86796871728161      0.65177434639703
  H          -0.16179598324969     -0.73177058876521      1.25593359958110
  H          -3.62376475569984      0.01287630268676     -1.09157087912927
  H          -3.37018208065588      1.77524266237394     -0.85658805767680
  H          -2.58898018524371      0.90932247935795     -2.20681865582051
  H           3.66854703804394      1.44498701226826      0.11847906715069
  H           3.24503438001525      0.42186230670928     -1.29526877899766
  H           2.33189842543009      1.89909665881028     -0.97174331479873
