15
Coordinates from ORCA-job geoopt E -751.834002937504
  C           0.44847446700449     -1.36001274955746     -0.00117657535885
  C          -0.27147257182347     -0.21022724679644      0.00012024185327
  C           0.40630604309669      1.06892352128997      0.00143965822619
  O          -0.14250191487227      2.17090367913820      0.00245914562501
  N           1.79692730059311      0.97396548159506      0.00124380478587
  C           2.55102570895125     -0.17806522665678      0.00013262650579
  O           3.77583960873587     -0.18097344279621      0.00023507295312
  N           1.80238280990076     -1.34244240208219     -0.00121064465367
  C          -1.76121938849480     -0.22819366029479      0.00012951506183
  F          -2.25023613551416     -1.48797713315818     -0.00101607864101
  F          -2.28259045471994      0.39695827941675      1.08698664605662
  F          -2.28264084738615      0.39896389127442     -1.08554587447124
  H          -0.00666241820790     -2.34440743937217     -0.00220941406981
  H           2.31632786264533      1.84740870557400      0.00215249911199
  H           2.31907429739120     -2.21497602667418     -0.00205957598509
