8
Coordinates from ORCA-job geoopt E -229.030120521843
  C           1.39652469855120      0.54326864204531     -0.10323294488367
  O           0.53275439080046     -0.59256564058142     -0.39178950561140
  C          -0.71113737006078     -0.51553433460237      0.08510379189493
  O          -1.16247506186260      0.41158940910358      0.72754229928498
  H           1.50578859689016      0.66400655737003      0.97731831121079
  H           0.97879034178707      1.45074852692594     -0.54609578683963
  H           2.35472965603185      0.29964941939912     -0.56043311602811
  H          -1.27503027733737     -1.41906566956019     -0.18817426722790
