22
Coordinates from ORCA-job geoopt E -574.580536810877
  C          -4.20459897740296      1.44422350664372     -0.13721372103541
  C          -3.50153043263363      0.11270602502762     -0.06804655358197
  O          -2.06670366389607      0.38375605007722     -0.05675592163957
  C          -1.25513365096508     -0.68653362019089      0.00441457379770
  O          -1.67616810188751     -1.83761200154869      0.05007941879401
  C           0.17402917008674     -0.32655420084121      0.00930036540690
  C           1.12515206719179     -1.35459293030871      0.07838394863550
  C           2.47817909771056     -1.06978564786806      0.08191024899233
  C           2.89964413179732      0.26150251566379      0.01431784324833
  C           1.96569214943112      1.29933923117729     -0.05305613335000
  C           0.61273673319072      1.00332269451060     -0.05522091196380
  O           4.24409266780064      0.49434089378301      0.01564273998719
  H          -3.93292395406048      1.98709782569715     -1.04778263569558
  H          -5.28591433199706      1.27550406926877     -0.14816858837182
  H          -3.96284133740340      2.06381156255258      0.73185969618072
  H          -3.72825992439246     -0.51544423938467     -0.93589497466199
  H          -3.75678506757924     -0.43864864590298      0.84294413452341
  H           0.79299066401233     -2.38675752435992      0.12882880889820
  H           3.21721998365248     -1.86337591972464      0.13459165109545
  H           2.30734279369366      2.33011225045327     -0.10384589905733
  H          -0.10538587255857      1.81422968785115     -0.10848873765432
  H           4.40868459650912      1.44723642182360     -0.04296148214797
