14
Coordinates from ORCA-job geoopt E -617.975711511534
  C          -3.12423315294529      0.44584543970548      0.15192565227311
  C          -1.91972200675336     -0.25076227494099     -0.47507529222151
  C          -0.60247327327562      0.20749125686888      0.15943299429831
  C           0.56644770978072     -0.50404261458638     -0.48239100208490
  Cl          2.16600318737961      0.03430016749759      0.26307954140980
  H          -3.05895775080150      1.53263857055927      0.02608552958417
  H          -4.05933498568235      0.10997744542986     -0.30847757968863
  H          -3.18403237988146      0.23575665895520      1.22593789814882
  H          -1.89389346626454     -0.04754316593452     -1.55373448258786
  H          -2.01941456995089     -1.33818408865843     -0.36093433541400
  H          -0.49088005146304      1.29177314495829      0.03544430503886
  H          -0.61922510415285     -0.00244734506558      1.23607442388196
  H           0.65012784913939     -0.28159291340945     -1.54872261243580
  H           0.52316080757118     -1.58563620977923     -0.33464206210229
