34
Coordinates from ORCA-job geoopt E -921.749720340378
  C          -4.00962005887908     -2.73831706156002      0.63866759889650
  C          -3.47804894254698     -1.62304370511546     -0.25665084472752
  C          -2.35800326189256     -0.82759641887633      0.41001373812591
  C          -1.84007333727176      0.28399950966124     -0.49856998355576
  N          -0.76862679853238      1.07691879387548      0.11391678242422
  C          -1.17754408046244      2.23647735273423      0.92524985732667
  C          -1.23953269468244      3.51990506550567      0.10888124948486
  C           0.54538402945444      0.82936114983066     -0.04282333103803
  O           1.43885584860562      1.51648829360730      0.46459844794842
  S           0.94266616077660     -0.61607262853253     -1.08288149879238
  C           2.76543905897076     -0.63190127109038     -0.87465982326065
  C           3.22562894440867     -1.27358185007558      0.42830354187869
  C           4.74825130082269     -1.23761802704205      0.54285381937091
  H          -3.21317108610964     -3.44498972964808      0.89949030609585
  H          -4.41460947983341     -2.33255989686878      1.57302507067658
  H          -4.80814489083838     -3.30125992013570      0.14376244027317
  H          -3.10594188945358     -2.05003366468189     -1.19815880701833
  H          -4.29672058150310     -0.94142477240496     -0.52527778813043
  H          -2.72161073990848     -0.38803882831453      1.34882739040887
  H          -1.52746887811564     -1.49815681961865      0.66822484853538
  H          -2.65290495831128      0.97829056488811     -0.74541880690855
  H          -1.49536937690621     -0.12919365022668     -1.45359498751260
  H          -2.16092473040148      2.00070670236973      1.34551669063673
  H          -0.47966329923828      2.34271764899018      1.76074060048501
  H          -0.25390037609804      3.77484198178049     -0.29355721011585
  H          -1.94134410307555      3.41913430547942     -0.72583493789967
  H          -1.57765378800955      4.34681245711492      0.74209334322907
  H           3.12536735523705      0.39754362415981     -0.96735436586876
  H           3.13538880159466     -1.19724552257923     -1.73824934149689
  H           2.77358414023682     -0.74570312332004      1.27617527631748
  H           2.86930265255182     -2.31000397491517      0.46672162646213
  H           5.21921385544877     -1.76783867331647     -0.29288304274466
  H           5.11855432955065     -0.20614496802119      0.53848037374915
  H           5.08165534481170     -1.71093681005353      1.47213969714444
