42
Coordinates from ORCA-job geoopt E -1520.174050404812
  C          -4.57857335252961      0.52506490450907     -2.63250327183235
  C          -3.82253133660769     -0.21894473354020     -1.53529001830557
  C          -2.79686778055545      0.71257150851509     -0.88729114472829
  N          -1.96797256696988      0.01050786980655      0.10422204956358
  C          -2.66813020424334     -0.71098681956630      1.17749000109417
  C          -3.63344525687282      0.19880281171282      1.93903723510705
  C          -4.25972993990997     -0.56565341038946      3.10188475397558
  C          -0.61725018076461      0.03112167305962      0.03568340403456
  C           0.12747179633904      1.17677589001294     -0.37814853234491
  C           1.50657992470569      1.19679069531569     -0.48608489138853
  C           2.22898328363946      0.07815737760391     -0.09707387707259
  C           1.58275178771883     -1.06432564410161      0.35100910565835
  C           0.19957415358743     -1.08997527447640      0.37313861659358
  N          -0.37447799426531     -2.42367238063254      0.55873404363404
  O          -1.29885096335105     -2.76349217920743     -0.17490712244510
  O           0.14568221746566     -3.15964615404299      1.39481137741630
  S           4.01801758402012      0.10457605398773     -0.17739794685360
  O           4.45412595875880      1.51640083937229     -0.06780258841640
  O           4.52384851482751     -0.87758553877632      0.80980152136019
  C           4.40337177359884     -0.48994513804812     -1.82688965196407
  N          -0.50478294809499      2.49180885110194     -0.50223807048368
  O          -0.09991174299185      3.23965331988948     -1.38990687249747
  O          -1.35633608434237      2.80521014367940      0.32479192410514
  H          -5.10392214646074      1.39699246775762     -2.22645000868066
  H          -3.89685663613689      0.87615603730143     -3.41532626969286
  H          -5.32259868535354     -0.12672546954542     -3.10060624973691
  H          -3.30571673901319     -1.09250161102040     -1.95151704492217
  H          -4.53329209719745     -0.58579213775311     -0.78649545843602
  H          -2.13886597677476      1.08660499983239     -1.67897328298510
  H          -3.30359591055556      1.57637366344147     -0.43748979123143
  H          -1.91970179965650     -1.07424947597727      1.88927435052679
  H          -3.20404175762155     -1.58345535869444      0.78130271218641
  H          -3.08737417516994      1.07603788669655      2.30748534541232
  H          -4.42341173117268      0.56249080185071      1.27269068556215
  H          -3.49452736248417     -0.91566412802811      3.80390091351206
  H          -4.95724007462835      0.07194481508197      3.65367921692472
  H          -4.81513758812445     -1.44018946985190      2.74433490419904
  H           2.00680012499465      2.11119692767102     -0.78892905714834
  H           2.13839499106321     -1.95895519311357      0.61329728573378
  H           3.95724566718318      0.19275299156008     -2.55504606776761
  H           5.49454227282845     -0.49618122503440     -1.91506299392636
  H           3.99853863071791     -1.49991636125977     -1.93275814913979
