8
Coordinates from ORCA-job geoopt E -1458.531908832753
  C          -0.63763876054932      0.91183229924139      0.39772982236444
  C           0.39213689482244      0.12529678583442     -0.37811134361347
  Cl          0.37389814228919     -1.62734051237787      0.04877221575731
  Cl          2.01495936119710      0.83329523016797      0.01418704088756
  Cl         -2.31278333414724      0.37246109223770     -0.05879191497178
  H          -0.52471961577525      0.78123743287702      1.47561288008900
  H          -0.56129220152961      1.96783886589179      0.12869580792472
  H           0.26213128419269      0.19716171582758     -1.45908171363778
