8
Coordinates from ORCA-job geoopt E -2377.668724131157
  C          -0.79693788380856     -0.00012896546866     -0.66417900422811
  C           0.60609330457569      0.00011163686558     -0.00386385807343
  Cl          1.49724089621099     -1.45504727121198     -0.56173567086485
  Cl          0.50739290284608     -0.00013480229765      1.77817797467079
  Cl          1.49665354019786      1.45577115138029     -0.56138726567222
  Cl         -1.72110071716089     -1.46650913117562     -0.20883576770629
  Cl         -1.72161489426502      1.46596535143591     -0.20893902334235
  H          -0.67628730289616     -0.00014139072786     -1.75120539878354
