22
Coordinates from ORCA-job geoopt E -2761.092736976633
  C          -4.10333620436521      0.00052285068616     -0.00066285771342
  C          -3.41784830739761      0.85653789026104     -0.85500716394446
  C          -2.03022039440956      0.84278909499207     -0.84136586298907
  C          -1.29835146161493      0.00012040426296     -0.00034333319707
  C          -2.03065483388192     -0.84233913622656      0.84051300578118
  C          -3.41828949209881     -0.85568860989823      0.85383784533758
  Cl         -1.16031745958768     -1.92019372641841      1.91648503146846
  C           0.18201598081084     -0.00009963972883     -0.00016837795411
  C           0.91574757026252     -0.84042489872461     -0.84124918657502
  C           2.30335386820138     -0.86032198934540     -0.86073583656385
  C           2.97157288946743     -0.00053453805672      0.00019495950098
  C           2.30339788814915      0.85946345571377      0.86095058716941
  C           0.91579046253659      0.84000066322763      0.84110344791554
  Cl          0.05426615407758      1.91576067991242      1.91799615929526
  Cl          4.72188384246850     -0.00080987775668      0.00042617097236
  Cl          0.05416272601650     -1.91591696862576     -1.91836222165950
  Cl         -1.15932047236972      1.92038922326416     -1.91713848143092
  H          -5.18870962432331      0.00067932821246     -0.00078725561695
  H          -3.95323157186248      1.52401310282669     -1.52116444399578
  H          -3.95401294698629     -1.52301231127665      1.51987312330915
  H           2.84305415098869     -1.52457754106737     -1.52555076922452
  H           2.84313317351833      1.52354842386587      1.52590759851476
