34
Coordinates from ORCA-job geoopt E -921.750215563502
  C          -3.22268972153667     -2.94226462436472      0.41687714333064
  C          -2.44292921657892     -1.89002776065449     -0.36431263655167
  C          -1.80068776662733     -0.87300293502631      0.57648664238728
  N          -1.06505052999574      0.18276430710368     -0.12668559361297
  C          -1.83568602536178      1.36293607096249     -0.54931773879210
  C          -1.78963011543811      2.49157611001353      0.47720644287027
  C          -2.61815017994607      3.68709080542491      0.01816552675323
  C           0.25153104362647      0.13861666675315     -0.40842245019038
  O           0.85655490300945      1.04029537499190     -0.99916945618019
  S           1.10808602601305     -1.38314186078840      0.11795665306442
  C           2.82954347205377     -0.91446255321742     -0.31066908271163
  C           3.49137904078654     -0.00533175888515      0.71713438003132
  C           4.91098918559355      0.35754739750919      0.28608656743004
  H          -3.68643636741132     -3.66923131192607     -0.25704854404756
  H          -2.56571080778180     -3.49050412728267      1.10206142218447
  H          -4.01863436419233     -2.48070909426924      1.01264756366884
  H          -3.10926981501612     -1.36469019091787     -1.06028524358962
  H          -1.66023087438871     -2.36771551081762     -0.96684289117190
  H          -2.57433284004703     -0.38008480230163      1.17843456254669
  H          -1.13431092848860     -1.37531843198627      1.28727865645253
  H          -2.87036110198763      1.03590392326877     -0.70470018557114
  H          -1.45185545199380      1.71019817902116     -1.51435651267206
  H          -2.16568134836422      2.11789484060858      1.43832766375165
  H          -0.74553782258149      2.79065526223305      0.63290010999362
  H          -2.58807311039883      4.49406848041383      0.75697013975696
  H          -2.24130762195529      4.08609551761698     -0.93063213631445
  H          -3.66731982762767      3.40581148951770     -0.12927285485900
  H           2.81904785449146     -0.45967488146770     -1.30621416573725
  H           3.36179782934682     -1.87040063543292     -0.38339183793876
  H           2.89312755152220      0.90495710422881      0.84068669103263
  H           3.51090409373568     -0.51260189050992      1.68918277603229
  H           5.39387775238922      0.99832812737642      1.03105871059128
  H           5.52765423360434     -0.54037491192350      0.16401043696054
  H           4.90666479564690      0.89516114722775     -0.66891346559802
