33
Coordinates from ORCA-job geoopt E -785.719098464300
  C          -4.80836823350657      1.03427179428176      0.70813422112274
  C          -3.67347800384411      0.22629684558220      0.13887209965574
  C          -3.95481981048578     -0.93757303245049     -0.58190856746695
  C          -2.93146261109542     -1.69623669827048     -1.14266460521168
  C          -1.61061082675724     -1.30219265832579     -0.99083702364193
  C          -1.31100567793149     -0.15530188127413     -0.24776897811593
  C          -2.33626220271832      0.62225782020220      0.32617580645712
  C          -1.98457047442766      1.86408883648776      1.09782018258368
  N           0.01561260346343      0.30002485388573     -0.12397493166544
  C           1.14076975522549     -0.44576002392005      0.10046156955777
  C           1.05920118426012     -1.79731316024463      0.50037846745945
  C           2.19704116228025     -2.54408199855940      0.72784719674659
  C           3.47222922805558     -1.98667206794833      0.57142877892571
  C           3.57818200766893     -0.65917346979649      0.21020992497778
  C           2.44105127593011      0.13771388088551     -0.02357775048164
  C           2.60839341644243      1.54903895341936     -0.36312817216785
  O           1.69800561063243      2.37560698026111     -0.46273364330170
  O           3.89602260358748      1.91844551405702     -0.56697601277036
  H          -4.77269180169072      1.06683873829712      1.80354388287280
  H          -4.78037278963271      2.07182274024936      0.35626144236689
  H          -5.76895469537593      0.60193111960549      0.41643627665977
  H          -4.98977603203096     -1.24241238744458     -0.71428645473991
  H          -3.16534649611935     -2.58618418429672     -1.72037684449092
  H          -0.81232194177456     -1.86326488642115     -1.46636873598739
  H          -1.11364875193255      1.69843231421893      1.74065685980385
  H          -1.73239349062222      2.69495725913007      0.42434444044110
  H          -2.81040770554970      2.19624782407395      1.72833655642164
  H           0.17623654068533      1.30016297586710     -0.18775896449802
  H           0.08471788197104     -2.24598001375060      0.65444193500422
  H           2.09211485650650     -3.57768457305111      1.04680892032807
  H           4.36236476747407     -2.58105588441200      0.74893537676325
  H           4.55903205275042     -0.20844715998327      0.11199100895576
  H           3.89882731176171      2.87135948484457     -0.75924939176422
