26
Coordinates from ORCA-job geoopt E -464.850648235235
  C           5.00874304929665     -0.56039804069403     -0.03289391618213
  C           3.55812922961014     -0.68195948621144      0.42603815255951
  C           2.64460199244673      0.35192212351203     -0.22988653993409
  C           1.18942419014240      0.23725914836258      0.21913618775084
  C           0.28830472724548      1.27692939110204     -0.44540809843807
  C          -1.14930229544648      1.22725192437840      0.01803710935914
  O          -1.70720135234518     -0.05814527917490     -0.40295974660409
  C          -2.98532246607904     -0.29915786097430     -0.07098362211248
  O          -3.68091687623531      0.50266585107534      0.53478551896976
  C          -3.42956422932972     -1.66137490373783     -0.49732954058632
  H           5.09046573872311     -0.70009834062375     -1.11734342822168
  H           5.41481881516211      0.42966124908222      0.20609758112567
  H           5.64737173014755     -1.30858185659594      0.44922797703620
  H           3.50587082908526     -0.56904573387696      1.51779795439725
  H           3.18309163434670     -1.68984367943553      0.20039989757295
  H           2.69756201695607      0.24037823617433     -1.32285763743382
  H           3.01750652974708      1.36157975224276     -0.00311319733974
  H           1.13128476574821      0.35645386032199      1.31069214238754
  H           0.82040950140373     -0.77216596532493     -0.00658199571544
  H           0.32133799619637      1.16788506620063     -1.53778871878378
  H           0.65914301231844      2.28549999713608     -0.21847432165754
  H          -1.22643658866703      1.29576986750024      1.10927017016338
  H          -1.74897877330904      2.02526003407515     -0.43210115451861
  H          -3.16717833566401     -2.36873448340719      0.29852105298835
  H          -2.92634381780865     -1.97971836793934     -1.41238231268746
  H          -4.51267006239154     -1.67401066646765     -0.62679514489531
