23
Coordinates from ORCA-job geoopt E -276.290019541185
  C           2.76238694772135      0.49828990211705     -0.28933921260704
  C           1.29461551300943      0.90815960597603     -0.17958432414885
  C           0.30941623147998     -0.26717141334994     -0.26686599250093
  H           0.51756293012524     -0.78975567223316     -1.21486509987004
  C           0.53090506142235     -1.26516955513033      0.87336589574059
  C          -1.15369755428806      0.22857666807091     -0.35977353240512
  C          -2.10015505967979     -0.87396946718406     -0.84102373883002
  C          -1.67501445923052      0.83481364691712      0.94569260117688
  H           3.41221597476782      1.37907250221101     -0.33643924130621
  H           3.08460007401196     -0.10008756010188      0.56922106761600
  H           2.93818590320781     -0.09487652152159     -1.19529451012325
  H           1.06011032412119      1.61875623099441     -0.98428132322798
  H           1.14103245623776      1.44608258942671      0.76619926861497
  H          -0.22888542658994     -2.05390924452229      0.87787055118606
  H           1.50516618707624     -1.75612915885497      0.78354814766559
  H           0.50278156367894     -0.76399600252021      1.84861709923943
  H          -1.16142073178332      1.02187854405425     -1.12330043534632
  H          -2.18716852866826     -1.68030065473636     -0.10318771437069
  H          -1.75264966793848     -1.31442018281956     -1.78296517700667
  H          -3.10732966959975     -0.47446644939546     -1.00756016483427
  H          -1.75833158558113      0.07311777297232      1.72994909324109
  H          -2.67365292902732      1.26109602665799      0.79580484299893
  H          -1.02693818397351      1.63466868217200      1.31961879349785
