19
Coordinates from ORCA-job geoopt E -386.018504545367
  C          -3.21215370498963      0.00086131037632      0.84518348616725
  C          -2.48646558036752      0.00169589007036     -0.50537837119498
  C          -0.98801127759063      0.00200788651691     -0.34200052093808
  C          -0.27451717206637      1.19927125668601     -0.23884835504536
  C           1.10271562289384      1.20917019759851     -0.03388609691758
  C           1.78874741123284      0.00037774637927      0.07301313002856
  C           1.10055182373780     -1.20769779851590     -0.02538859518688
  C          -0.27519558651203     -1.19625659312720     -0.23004303426351
  O           3.15316257218153     -0.05613762055089      0.27134998969146
  H          -4.29898808889427      0.00008834333805      0.70737402215989
  H          -2.94328976606242      0.88689179594893      1.43126384113197
  H          -2.94207795797180     -0.88505303372012      1.43089768793559
  H          -2.79203506077935      0.88418613299831     -1.08014770353023
  H          -2.79145915607140     -0.88069558788232     -1.08066314470497
  H          -0.80285361899647      2.14668587778296     -0.32307574581097
  H           1.64563350272995      2.14892740860238      0.03767587726365
  H           1.64587248073180     -2.14401412955916      0.05385134106845
  H          -0.80590770418807     -2.14293108538720     -0.30763741970873
  H           3.50149482778221      0.84517237314478      0.31806065145447
