17
Coordinates from ORCA-job geoopt E -346.965630500346
  C          -3.46235730316927      0.16802742325822      0.02268835518930
  C          -2.18518518014874     -0.58087731844689     -0.34609886055277
  C          -0.92736779957411      0.17492130256924      0.07808854698348
  C           0.34140546053007     -0.58008589227328     -0.29374997250043
  C           1.60350959646826      0.12550949930063      0.09864756190008
  O           1.67104537351301      1.19558591699264      0.67926657363157
  O           2.70867894477006     -0.56603764212243     -0.26725386505706
  H          -4.35454405461661     -0.38635364103959     -0.28743187573614
  H          -3.52599323792368      0.32647566625333      1.10561134742648
  H          -3.49442136432488      1.15163692155779     -0.46041548566230
  H          -2.15626368731691     -0.75214860989871     -1.43080706026747
  H          -2.18801058367836     -1.57288303890243      0.12580218109990
  H          -0.91628550752200      1.16494740344511     -0.39589471598242
  H          -0.94868635696958      0.34420584522244      1.16239395314774
  H           0.39147857282201     -0.76402171628740     -1.37559356499136
  H           0.36383542246004     -1.57323605550202      0.17570318640743
  H           3.49183832848070     -0.06065941532665      0.01245068906397
