9
Coordinates from ORCA-job geoopt E -713.317492267343
  C           0.25621876205111     -0.53373880707969     -0.00052301759952
  C           1.39281674988135      0.15227260040876      0.00077770286788
  F           2.58302097596599     -0.39518596465509      0.00021332062387
  F           1.43570160380202      1.46602560150213      0.00267284284127
  C          -1.10276135269813      0.11115214490933     -0.00014440964772
  F          -2.05882550205618     -0.82975986959464      0.00393075469428
  F          -1.28862444397158      0.90216785278593      1.08196280249950
  F          -1.29232713474567      0.89619985519619     -1.08604565860633
  F           0.27884477187109     -1.87476816547293     -0.00292765147325
