21
Coordinates from ORCA-job geoopt E -1455.573521534724
  C          -3.02547555292106      1.87549698463427      0.15148142266913
  O          -2.21055937742818      1.25747917437613     -0.87686299231194
  C          -1.10874764746925      0.61185807922207     -0.37468180665700
  C          -1.11790301613274     -0.75415788425948     -0.09213736750542
  C           0.00951265316889     -1.41937797368824      0.37423791672070
  C           1.17569842924262     -0.68744645771217      0.55853219301439
  C           1.23311219551764      0.67630467357367      0.28027368408960
  C           0.08021753270293      1.32444821644193     -0.17992591282272
  O           0.08692611683197      2.65527527267906     -0.45127027138552
  O           2.36047301413302      1.43724247004022      0.48376609766763
  C           3.27654617313033      1.41940884464658     -0.64589873926597
  Cl          2.60241756788090     -1.49329973326037      1.17001778467458
  Cl         -2.59692618644585     -1.65645009378434     -0.33310373104265
  H          -3.41179357536225      1.11602820134555      0.84036313019870
  H          -3.85346574741074      2.36024953721443     -0.36860622500209
  H          -2.44533380778624      2.62132516754732      0.70555228404571
  H          -0.02142678256525     -2.48007311521983      0.59377574922850
  H           0.96159340803192      3.00399256296835     -0.20999494011039
  H           2.77698355409210      1.79860227965641     -1.54422773483034
  H           3.64666300612948      0.40462882908310     -0.82356379805122
  H           4.10450660565976      2.07523221509533     -0.37228567812367
