8
Coordinates from ORCA-job geoopt E -2837.231400756935
  C          -0.79331701409258     -0.00008928839671      0.00040376356371
  C           0.79330976283727      0.00017807561375     -0.00036595509603
  Cl          1.39518096053139     -1.47191406463886      0.81479015661314
  Cl          1.39370682776977      0.03023325966309     -1.68324784667732
  Cl          1.39477226397587      1.44240915276908      0.86675835457241
  Cl         -1.39372525303480     -0.02984755288812      1.68327572173890
  Cl         -1.39480847866159     -1.44249581346088     -0.86642125638547
  Cl         -1.39522360992532      1.47185703923866     -0.81500185452934
