26
Coordinates from ORCA-job geoopt E -933.156388874810
  C           2.99453844853905     -1.30893395236976     -1.12243715801238
  C           1.86765754672376     -0.61215223885773     -0.34657568159201
  C           1.33215920764428     -1.55284552206588      0.72845768556655
  C           0.89407814572780     -0.06204208160437     -1.35261117033613
  N          -0.36847191463310      0.14739703501343     -1.35541753172081
  O          -0.97893985859817     -0.25217599491087     -0.13166353710407
  C          -2.34860870285542     -0.06422692532959     -0.13331798426255
  O          -3.00847818279615      0.28549206028724     -1.10345294633476
  N          -2.82900540465486     -0.32662494613768      1.09087752240103
  C          -4.26407921866910     -0.31973038802939      1.34816042468575
  S           2.66242191991244      0.91475114166566      0.38762492590410
  C           1.25310453863543      1.75266142083545      1.19212452240713
  H           2.59618485218623     -2.21223215720285     -1.59726421904452
  H           3.41373143785513     -0.66403187149063     -1.90097093672156
  H           3.79556580891939     -1.60551837447365     -0.43866999651722
  H           0.76212863415837     -2.36268192261174      0.25843429943583
  H           0.68560089811849     -1.05969377195793      1.45380633848444
  H           2.18122142634908     -1.99362201529147      1.25980481815822
  H           1.34618597768767      0.27208675653804     -2.28846729146596
  H          -2.19296008750363     -0.66391742612977      1.79878664437742
  H          -4.78182739767600     -1.07947733490277      0.75224663881883
  H          -4.69509183105409      0.66016808626342      1.12191384778651
  H          -4.42028724563241     -0.53434968588452      2.40620350933036
  H           0.78778695880165      1.11959986421553      1.95209040624717
  H           0.51039809723679      2.07507806986488      0.45649201808338
  H           1.66845838827738      2.63924816936697      1.68046222202525
