19
Coordinates from ORCA-job geoopt E -386.019574911847
  C          -2.99750398442497     -0.64792107956761      0.75354488175567
  C          -2.27144439807255     -0.36172094392666     -0.56657884375234
  C          -0.84963577792829      0.08108807569238     -0.33537924128084
  C          -0.54710395750494      1.43402425521583     -0.14224342740593
  C           0.76120004539071      1.82785437367096      0.12445012235238
  C           1.78638032309124      0.88915010477224      0.20331468497117
  C           1.48239411668308     -0.45825356848811      0.01103712412281
  C           0.17532054683876     -0.86282590719769     -0.25617713217456
  O           2.44746507969532     -1.44107385806952      0.07084102669201
  H          -2.48899927925965     -1.44105290907757      1.31277512200839
  H          -4.02902791645810     -0.96698433538793      0.56985798622771
  H          -3.02443841639724      0.24717167468804      1.38478422062275
  H          -2.81104883239385      0.41922827237532     -1.11503480257801
  H          -2.27883950458958     -1.26437259134517     -1.18855986308900
  H          -1.33889446815854      2.17644834607854     -0.20394601992504
  H           0.99260891985682      2.87979019175237      0.26909423007513
  H           2.81055236133125      1.19260657942203      0.40687721607978
  H          -0.03551942944693     -1.91961364099540     -0.40386929737328
  H           3.30388844314749     -1.03283802941204      0.26224996637120
