16
Coordinates from ORCA-job geoopt E -234.533095446644
  C           2.10651967285003      1.03696855237603     -0.06376399658309
  C           1.43484518701102     -0.02045657293901     -0.51591806678634
  C           0.75887715551128     -1.04188122649116      0.34351207791291
  C          -0.76345308947533     -1.10576700325054      0.08714069208268
  C          -1.45968744437913      0.15276883805682      0.49997515300946
  C          -2.15384557841623      0.94627681124347     -0.31380662577173
  H           2.57112501254811      1.74664743437419     -0.74384021170413
  H           2.21463189800542      1.22433557622324      1.00347495521175
  H           1.34043078673191     -0.17019910315934     -1.59375051767120
  H           0.94748013964007     -0.82694374173760      1.40282888688353
  H           1.17948070179954     -2.03355756716443      0.12821611564101
  H          -1.16736686835969     -1.94969204343631      0.66278985943233
  H          -0.95280503546659     -1.31031235112845     -0.97410552993053
  H          -1.36144945039640      0.42519948063398      1.55315659978759
  H          -2.63268609351913      1.85194642957587      0.05018877594458
  H          -2.26671735598490      0.71240184932323     -1.37131314205880
