14
Coordinates from ORCA-job geoopt E -1077.561374804681
  C           0.35621596618654     -0.28034480305883     -0.61286619923936
  C          -0.35616373686410      0.28005412408680      0.61294305058473
  C          -1.73407736240999     -0.29502488523935      0.83698140050825
  Cl         -2.90286048610230      0.16858775212966     -0.51807606490596
  C           1.73408123183083      0.29480127550112     -0.83703465531803
  Cl          2.90289761187492     -0.16825283860799      0.51813870036514
  H          -0.21625247372128     -0.03348029520102     -1.51817893028845
  H           0.40798307634528     -1.37484906959032     -0.55717076669446
  H          -0.40788331876969      1.37456238663265      0.55726875897063
  H           0.21624852487940      0.03315345371951      1.51827824687393
  H          -1.72714704955298     -1.38748272241601      0.85386455821830
  H          -2.19011293551145      0.08629944703035      1.75202799005482
  H           2.19014266191208     -0.08675250421892     -1.75197703742134
  H           1.72702350920273      1.38725413523234     -0.85433076100820
