16
Coordinates from ORCA-job geoopt E -954.745764359795
  C          -2.05170126184274     -0.48436342998180      1.34327317174735
  C          -2.19328293450834      0.17548812193765     -0.01376174128492
  S          -0.63763532804895      0.93831007242430     -0.66583382970695
  S           0.64737715204762     -0.67161798664623     -0.90584369340432
  C           1.62754142685043     -0.70977562163143      0.66616975878405
  C           2.55548051245195      0.47736104418119      0.83302653851459
  H          -1.68396509152653      0.21966069754320      2.09620506365273
  H          -3.02881087643810     -0.85981526514592      1.66977634347173
  H          -1.36785929077920     -1.33757166097519      1.29602640890917
  H          -2.88649779000301      1.02616569981148      0.02637514381966
  H          -2.56823548075914     -0.52559763329780     -0.76599738541362
  H           0.93168182103234     -0.80402930107624      1.50458519052652
  H           2.19142509356623     -1.64873698377525      0.59001011561999
  H           1.99161919448774      1.41537249181526      0.86456792665658
  H           3.10615701801652      0.38498703791258      1.77666788234331
  H           3.28048643875317      0.53427024570420      0.01530013296411
