23
Coordinates from ORCA-job geoopt E -276.291274354044
  C           3.47553525904369      0.27897969449043     -0.10975797771382
  C           2.21807534076314     -0.50986476711341      0.24546043306654
  C           0.93452546042494      0.20087887603771     -0.18306176469798
  C          -0.32625307026214     -0.57578389715903      0.19436325908485
  C          -1.63486842713715      0.00802681603950     -0.35405477654517
  C          -2.81059032834346     -0.90210515461050      0.00479130234593
  C          -1.88886342447780      1.42781616763941      0.15546883628099
  H           4.38377613354154     -0.24939019857595      0.20025980083237
  H           3.54008512603836      0.44828962270676     -1.19121131521557
  H           3.47581574891862      1.25987109298534      0.38021947020133
  H           2.18781473904149     -0.68676485871318      1.32974583524390
  H           2.25801131665679     -1.50053975771493     -0.22827782990205
  H           0.91395899437491      1.19943062288328      0.27411682729741
  H           0.95410118220924      0.35782297603002     -1.27209550408957
  H          -0.22618152790945     -1.60884340127934     -0.16985795559694
  H          -0.40070238753712     -0.63970919167875      1.29115015098278
  H          -1.55226829932627      0.04598979387591     -1.45146857017662
  H          -2.65590804379892     -1.92072972606185     -0.36959802935500
  H          -2.93369551517093     -0.95979993257227      1.09408810299781
  H          -3.74922837252175     -0.52547686134218     -0.41768715222446
  H          -1.11677871770690      2.12938759200891     -0.17667731280375
  H          -1.90887288751547      1.44347398453110      1.25324291550940
  H          -2.85416728070536      1.80434689259300     -0.20237020062238
