19
Coordinates from ORCA-job geoopt E -273.814887686273
  C          -3.15745823689815      0.80470811697150      0.20585356379949
  C          -2.16867926069042     -0.20712092162584     -0.36678661963100
  C          -0.77440122865391     -0.07477209552781      0.24325824847504
  C           0.21929401366840     -1.07865079084677     -0.33287926204806
  C           1.61661255757562     -0.98884755291712      0.30668692053878
  C           2.26970981599598      0.29056424359831      0.07694056924465
  C           2.79959056365341      1.35644537778769     -0.12823701307286
  H          -4.15119137426559      0.69231080161083     -0.24113192566569
  H          -2.82108057702398      1.83146972660078      0.01967521558030
  H          -3.26245310874030      0.68059610097524      1.29013769949627
  H          -2.54290629078200     -1.22600295658340     -0.19633191519723
  H          -2.09957871873099     -0.08007649727604     -1.45594547428464
  H          -0.83773971413949     -0.21177122654412      1.33271554694516
  H          -0.40268560211950      0.94654812533859      0.07779593596573
  H           0.31003773985564     -0.93465658422385     -1.41708472440835
  H          -0.15279610985381     -2.09851821117369     -0.17385687425283
  H           2.25737285605372     -1.78699257551921     -0.08834174666210
  H           1.53609319323958     -1.15756434380832      1.38882361209921
  H           3.27091731895581      2.29714481516323     -0.30683241872186
