29
Coordinates from ORCA-job geoopt E -354.894969387854
  C          -2.58687987189634     -1.39826323313189     -0.00153982996324
  C          -2.19187877325272      0.03328865836294      0.36545299369274
  C          -3.24654973885900      1.01923595473489     -0.13953720108363
  C          -0.80851252676772      0.41199054246807     -0.18401663647615
  C           0.32980407678874     -0.46553387849516      0.33782202156817
  C           1.76270106062476     -0.00010674651473     -0.00108236726650
  C           2.74047963246523     -1.05853727376362      0.52612563890048
  C           1.94464303494022      0.13463218361697     -1.51751356368031
  C           2.07961976457791      1.34029296370376      0.67367396438087
  H          -1.91364134907958     -2.13910975921609      0.44167924750641
  H          -2.56731863202812     -1.53409316667377     -1.09109576218625
  H          -3.60195599218418     -1.62383873618182      0.34552993225337
  H          -2.14944012160736      0.10745153586777      1.46347392014686
  H          -4.23457362552440      0.79487068559317      0.27869009664074
  H          -2.99083739931472      2.05039011329589      0.13085054551778
  H          -3.32722418561634      0.96948963919486     -1.23322792317940
  H          -0.84843490936142      0.36223816625390     -1.28197439112544
  H          -0.61598276378609      1.46206187556762      0.07399080350271
  H           0.20989915365923     -1.48503574466534     -0.05414870695666
  H           0.24691837607518     -0.54167461795436      1.43309834992100
  H           2.63059733593135     -1.18891137774148      1.60984481021939
  H           2.56227096616917     -2.03011100193238      0.04917092486812
  H           3.77859152585613     -0.76790317043701      0.32439302645128
  H           1.68057031843984     -0.79906960732506     -2.02970335219932
  H           1.32064071228062      0.93521941081689     -1.92970049639232
  H           2.98842128809797      0.36904618718705     -1.75968675088872
  H           1.44685961824830      2.14946833159339      0.29355199430016
  H           3.12302703542024      1.62384417226398      0.48967496826488
  H           1.93405844170309      1.27661127601157      1.75919881826298
