22
Coordinates from ORCA-job geoopt E -387.414966346913
  C           4.16680132556137     -0.60605815790846     -0.34081578226138
  C           3.02371289641213      0.21633919188421      0.24711835842025
  C           1.66002442783980     -0.22547312771936     -0.28281620192046
  C           0.53272308022859      0.59926147893612      0.30390409873739
  O          -0.71286291744113      0.13038904796001     -0.22886015896186
  C          -1.82620084257939      0.87572888838867      0.26885357909871
  C          -3.09182303167987      0.23644479969485     -0.24603605386082
  O          -3.28988835669326     -1.08681900906599      0.27815987588803
  H           4.19515879666606     -0.51481215876744     -1.43284243956550
  H           5.13625177279778     -0.27672092482564      0.04802073208351
  H           4.05173371842785     -1.66880240105759     -0.09792322450528
  H           3.03314205856906      0.13121127599622      1.34208106673410
  H           3.17681378544920      1.27890208140057      0.01514404125236
  H           1.64195762511078     -0.13478675686838     -1.37736326894067
  H           1.49521081468009     -1.28453322637105     -0.04195010327877
  H           0.51850842435293      0.51153492696716      1.40289460188426
  H           0.66134366284987      1.66543842769565      0.05344190977349
  H          -1.81883026530070      0.87451277996689      1.37105173524931
  H          -1.77532297692918      1.92169602967479     -0.07650182485871
  H          -3.08119138801372      0.21474238878746     -1.34583455456824
  H          -3.95003847913332      0.83410429168252      0.07724811145342
  H          -2.54015875147493     -1.62149982805122     -0.01491969105312
