15
Coordinates from ORCA-job geoopt E -2845.035523739224
  C          -3.36943861568301     -0.00773556468258     -0.53136970378093
  C          -2.72647355251073     -1.21068468301610     -0.24381098751946
  C          -1.45179220510177     -1.20414581926893      0.31251802369552
  C          -0.80778948245173      0.00640010884834      0.58820426160284
  C          -1.45865587639009      1.20977639728096      0.29772979335721
  C          -2.73339709262733      1.20225221712422     -0.25855254630588
  C           0.54747164030908      0.01409893796424      1.19208123310823
  Br          1.98132357892275      0.00431680444435     -0.23623492731528
  H          -4.36588958265247     -0.01323630819042     -0.96398421973777
  H          -3.22154854250163     -2.15550725584251     -0.44967232675450
  H          -0.95004179800153     -2.14213290195468      0.53837545596331
  H          -0.96228458850055      2.15329538393526      0.51211933717526
  H          -3.23384279340828      2.14166242700949     -0.47588223791479
  H           0.75804597130948     -0.87807032818203      1.78006706730448
  H           0.75444179468780      0.91720724923039      1.76440054712176
