8
Coordinates from ORCA-job geoopt E -1918.100842478459
  C          -0.70737404303628      0.00105846374209      1.16584393767197
  C           0.36715095389309     -0.00002457691741      0.08698443857797
  Cl          0.26822558252755     -1.46470981772459     -0.94613787969014
  Cl          0.26666282880530      1.46139126053175     -0.95061779811661
  Cl          1.95390567292411      0.00213612808433      0.94847998636619
  Cl         -2.37263909164893     -0.00083463171897      0.46890557454488
  H          -0.60190748717093      0.89879040546879      1.77932846394144
  H          -0.60098397999391     -0.89470617496599      1.78204877550429
