26
Coordinates from ORCA-job geoopt E -315.590214683512
  C           4.46913694552800     -0.26739276785879     -0.00017937513723
  C           3.17203162593668      0.53733398956233     -0.00017334251578
  C           1.92752403781742     -0.34903840685145      0.00008966290862
  C           0.62176717088672      0.44374585016158      0.00007986933412
  C          -0.62176728916440     -0.44372451117127      0.00015614539077
  C          -1.92753418445136      0.34904340471469      0.00014668385149
  C          -3.17202246906493     -0.53735807080901     -0.00018073264961
  C          -4.46914895429223      0.26733397839949     -0.00020103614871
  H           5.34871301530170      0.38566494409312     -0.00051199146377
  H           4.53132129385403     -0.91158944028807      0.88495740496078
  H           4.53100360438588     -0.91206590428533     -0.88499193011965
  H           3.14648809563460      1.19564560210835      0.87936101895827
  H           3.14630573934266      1.19537171722796     -0.87990696306366
  H           1.95306844493700     -1.00839177279423     -0.88015293303534
  H           1.95323733796848     -1.00811481441895      0.88053400901868
  H           0.59737219911598      1.10281035973577      0.88042360373933
  H           0.59732029713355      1.10268185142711     -0.88035943028424
  H          -0.59732681800280     -1.10269528692263      0.88056873158203
  H          -0.59736673833072     -1.10275623617275     -0.88021333673726
  H          -1.95306288532558      1.00842271409422     -0.88007666642224
  H          -1.95328569464489      1.00809242828154      0.88061022141432
  H          -3.14648911562816     -1.19569959519442      0.87933122143075
  H          -3.14625004446324     -1.19535776873033     -0.87994137337930
  H          -5.34870265103582     -0.38575466130671     -0.00065780125483
  H          -4.53097535766782      0.91209496916666     -0.88495169523666
  H          -4.53142485457076      0.91142897053112      0.88500333245912
