10
Coordinates from ORCA-job geoopt E -155.939471519901
  C           1.83973698798949     -0.12018708962911      0.00006227782957
  C           0.60557718457598      0.40020714754785      0.00012051915740
  C          -0.60556385480007     -0.40022011498394      0.00054938440139
  C          -1.83972370738004      0.12017395544952      0.00050737042100
  H           1.99678153937384     -1.19710387405006      0.00034222532209
  H           2.72066449517209      0.51500133592797     -0.00027538819655
  H           0.47408736656231      1.48314504827156     -0.00016528494348
  H          -0.47407372749851     -1.48315794110333      0.00088502239443
  H          -1.99676895384883      1.19709063484195      0.00016865433911
  H          -2.72065094204625     -0.51501495017241      0.00081144517503
