12
Coordinates from ORCA-job geoopt E -434.683108481181
  C          -2.13979195252300      0.43672260925532      0.05692264108212
  C          -0.85691471638932      0.12924835764656     -0.67833427216151
  O           0.19637603835010      0.19892296040380      0.33310800434562
  N           1.47509220540282     -0.11446046321040     -0.14449350383128
  O           2.32431609252242     -0.06341011763575      0.71477166745136
  O           1.59929491316448     -0.38822017920780     -1.31506614547797
  O          -2.52735506679931     -0.59953848892231      0.96324873062143
  H          -2.92941843333505      0.51407461815575     -0.69759064858888
  H          -2.06197920502239      1.40385409550669      0.57177491369757
  H          -0.66404617316335      0.88028399736500     -1.45184100452274
  H          -0.87273622969490     -0.87532054981376     -1.11182135673881
  H          -1.92649306021248     -0.57359617234310      1.71937762712310
