27
Coordinates from ORCA-job geoopt E -615.014365742427
  C           2.59502867139773     -0.85207111639109      1.53812503985438
  O           1.20952663536728     -0.53625939978193      1.30230541790769
  C           0.90606188026043     -0.16499919426458     -0.01626412252638
  C          -0.58587061201109      0.13006290748335     -0.09400182242535
  C          -1.43720473070657      0.03216263923551      1.00452399086302
  C          -2.79438460976121      0.31973589062175      0.86264106730208
  C          -3.30576292008050      0.70500712240560     -0.37241201652181
  C          -2.45425154588676      0.80293675847724     -1.47260106111322
  C          -1.10150450218754      0.51683822290967     -1.33395401903735
  O           1.68112234802301      0.93335513939065     -0.45156125009790
  C           1.49910706700206      2.12748209342694      0.32724766318335
  O           1.29610905543908     -1.15136290634159     -0.94967858435598
  C           0.65636918640040     -2.42470347236347     -0.76287723943422
  H           2.91627480826413     -1.71064518613950      0.93858166850192
  H           2.66277765788851     -1.10393001041348      2.59804894637816
  H           3.24185911114957      0.00584488091316      1.32540062452973
  H          -1.04988074103576     -0.26654883661153      1.97200019278578
  H          -3.45188435097120      0.24147155178628      1.72392945858785
  H          -4.36342504722986      0.92867377642582     -0.47983923391960
  H          -2.84593746286702      1.10291409645489     -2.44042181412781
  H          -0.43839752562194      0.59302708944969     -2.19144464060146
  H           0.47225057979917      2.50382298390604      0.24336546279815
  H           2.18883622951860      2.86338354116575     -0.09021082414626
  H           1.74209135685104      1.95950100447307      1.38267853394371
  H          -0.42506971983957     -2.35472564927712     -0.93217304754622
  H           0.84426928104669     -2.82552455201647      0.23970656837690
  H           1.09624395979132     -3.09109791292464     -1.50718586285915
