11
Coordinates from ORCA-job geoopt E -268.336114982516
  C           2.28854872912627      0.03315300344911      0.09187214556569
  C           0.88253279073987     -0.41383664838090     -0.21072864640259
  O          -0.02529561877784      0.60074259778070      0.34069659255755
  C          -1.32883803516793      0.38478121977271      0.17412000344490
  O          -1.82081699792121     -0.57344265459028     -0.39021373484896
  H           2.45467675150717      0.11151637548826      1.17054322590008
  H           2.98913775532302     -0.70524315282637     -0.31028683167973
  H           2.50447968000490      0.99962610783374     -0.37354151449759
  H           0.64326623239865     -1.37301436270549      0.25927800189718
  H           0.69450435730888     -0.48699156182909     -1.28657593429497
  H          -1.90806193864180      1.20472594310761      0.62368917705843
