22
Coordinates from ORCA-job geoopt E -4139.812642768381
  C          -1.20168681347448     -1.03964015830094     -0.89298003418674
  C          -0.51758822379123     -0.20582978324563     -0.01708680823236
  C          -1.22667154539493      0.72043201683184      0.74793456071253
  C          -2.61707536793364      0.81331278898588      0.63944882721144
  C          -3.30231781320472     -0.02928605115075     -0.24575529019570
  C          -2.58036607119303     -0.95246432114231     -1.00723921186063
  Cl         -3.39563628731486     -2.01514401717262     -2.11721711353791
  Cl         -5.02339405144970      0.07374092335358     -0.38995284878521
  Cl         -3.49072869064881      1.96324273594690      1.59292507116772
  Cl         -0.35773905847029      1.75889221934955      1.83662863529957
  C           0.95693609922024     -0.31873529375956      0.09270384411750
  C           1.55268198972050     -1.17422465151701      1.01989592803219
  C           2.92776762437403     -1.30580198237392      1.12821988006286
  C           3.73840135264491     -0.56086499825936      0.28414278104330
  C           3.19121292319419      0.31369570976922     -0.65946098157074
  C           1.79895344205318      0.42292062197249     -0.74019646384468
  Cl          1.08115205432266      1.51285450749285     -1.88763753871355
  Cl          4.21335450172918      1.24034554573896     -1.70385014583159
  Cl          5.46215074144361     -0.73915944796402      0.42619198668906
  Cl          0.53910714451265     -2.10692095428729      2.09308746042520
  H          -0.64980249662753     -1.75962797615041     -1.48780798543886
  H           3.36706082118806     -1.97720286671745      1.85668474213662
