15
Coordinates from ORCA-job geoopt E -420.733974713613
  C          -1.01066309192078     -1.80567772461222      0.00002578073563
  C           0.36684828638545     -1.60946346209663     -0.00000348934079
  C           0.87336100177389     -0.30541690589928     -0.00003286031522
  C           0.01242029105366      0.79952829365595     -0.00004495286342
  C          -1.35881896038423      0.58470972340133     -0.00002649587160
  C          -1.87410451221153     -0.71792949580735      0.00001390178762
  O          -2.26625483981983      1.61248453101593     -0.00004250870918
  C           2.32741631876517     -0.12433550467679     -0.00001705393026
  O           2.89535873305141      0.96275580047341      0.00002724411647
  H          -1.41959739420991     -2.81150299090550      0.00005558776982
  H           1.05015174203931     -2.45430392037301      0.00000251871468
  H           0.41627810624418      1.80898222306541     -0.00007063448340
  H          -2.95095789478002     -0.86055122363590      0.00003404993399
  H          -1.79351281353025      2.45722461800719     -0.00007515699480
  H           2.91626883494349     -1.06309074321254     -0.00009502434955
