18
Coordinates from ORCA-job geoopt E -272.910115890472
  C           3.23279528133883      0.23729828535296      0.01625351392170
  C           1.92115422765261     -0.54200195806655     -0.02207774773648
  C           0.69514114495531      0.36939033428230      0.00712149009048
  C          -0.62219595993375     -0.40472812219601     -0.02155366179127
  C          -1.82742018632704      0.52041517455406      0.00020772120941
  O          -3.07759718094537     -0.19746042390453     -0.01826298825685
  H           3.30322498803928      0.84352269756929      0.92713069177733
  H           4.09881001372870     -0.43313284778252     -0.00656734177601
  H           3.31226166464330      0.91548572174938     -0.84160261993303
  H           1.87715021118187     -1.23278335471556      0.83113515495482
  H           1.88718771538615     -1.16382391076080     -0.92711370055263
  H           0.73156923176353      0.99566477600272      0.91017350622086
  H           0.73429363484905      1.05671897094604     -0.85041865169583
  H          -0.67330723552568     -1.07778558534342      0.84674877977323
  H          -0.66684163338511     -1.03324394576950     -0.92155800521058
  H          -1.83786411059431      1.15737884856917     -0.89155497205177
  H          -1.78524190609879      1.17785896080409      0.88206788096201
  H          -3.10613867312858     -0.73744327709112      0.78243177679461
