14
Coordinates from ORCA-job geoopt E -2731.938054552757
  C          -3.84752121455895     -0.76892749243883      0.08678933572356
  C          -2.73457337522522      0.11074398876304     -0.47660138137743
  C          -1.35764186348737     -0.30326052491486      0.05678160106818
  C          -0.28407262132606      0.58760628370858     -0.52205142580285
  Br          1.52948871643166      0.08050787596829      0.14804584827644
  H          -3.88335377229483     -0.70418181079235      1.18026263699477
  H          -4.82566139601753     -0.46462642658700     -0.30031289458430
  H          -3.69119887328109     -1.81982651193251     -0.18214663620659
  H          -2.92376828530531      1.16064653603014     -0.21742455027979
  H          -2.73264699340701      0.05057571756414     -1.57280857488144
  H          -1.35147998208517     -0.23435757054279      1.15132303622024
  H          -1.15995062155016     -1.34884459577398     -0.20863555917074
  H          -0.40482464087884      1.63248469270005     -0.23277727732559
  H          -0.21186943711413      0.50698221954808     -1.60755777715446
