18
Coordinates from ORCA-job geoopt E -235.766821019997
  C          -2.79772141359905     -0.03180450467452      0.00657615982796
  C          -1.38271341807012     -0.58493740951596      0.15790580102884
  C          -0.32688129255665      0.47676867477475     -0.13049371273443
  C           1.11589891063903      0.05772944687898     -0.01523346706053
  C           1.50806011853481     -1.17578560300161      0.31933271181000
  C           2.10713332664297      1.14835112144449     -0.30859390149356
  H          -2.96952492611620      0.80372818460067      0.69529718526670
  H          -3.55011940245317     -0.79921087330421      0.21746415853006
  H          -2.97030150590540      0.33525657776960     -1.01197146933091
  H          -1.24677370493091     -0.97306675399018      1.17571846621852
  H          -1.24590403282208     -1.43537199294996     -0.52258959440794
  H          -0.48146135392619      0.87908614073635     -1.14420990351445
  H          -0.48256089870427      1.33742569015518      0.53908741335596
  H           2.56508860588257     -1.42292414668742      0.38767089449264
  H           0.80069500144614     -1.97168643902770      0.53374107549226
  H           1.96000228162764      1.99678836316023      0.37207013262165
  H           3.13883140718335      0.79891254375683     -0.21139778099386
  H           1.96407239952752      1.53704422387451     -1.32510220420892
