29
Coordinates from ORCA-job geoopt E -466.970045538394
  C           2.18387795565706      2.17648363845318      0.27525031360032
  C           1.82881321555324      0.80151120824910     -0.21905760766524
  C           1.85625341293965     -0.25848392613870      0.60151870207591
  C           1.46968466774843     -1.67156402025310      0.28511592651403
  C           0.07461543050428     -2.03869993252558      0.86141850351237
  C          -1.03667785404214     -1.25481434784344      0.21161755576626
  C          -1.57942191158938     -0.20484735699989      0.84783240872068
  C          -2.59956576332294      0.74311391302444      0.31321285970221
  O          -2.02429456226333      2.06471894416405      0.12027151920962
  C          -1.42898578572589     -1.72476122652194     -1.15996504874767
  C           1.42357717430974      0.75295803745396     -1.66490278854105
  H           1.33231168762356      2.85980316984781      0.15027539505396
  H           2.46924128335346      2.17094827467504      1.33138717368602
  H           3.01084784724448      2.60292682340940     -0.30780710882735
  H           2.14127350275983     -0.07917724916917      1.64069322714318
  H           1.48204137072509     -1.86293287374314     -0.79242556495339
  H           2.19985401890673     -2.35677427735133      0.73501147708552
  H          -0.08938240092143     -3.11363286995744      0.70563326114970
  H           0.08204210368293     -1.85518998591003      1.94235232378041
  H          -1.20876936205737      0.03485842966919      1.84625613870909
  H          -3.40940285726547      0.89193193517511      1.03618381749193
  H          -3.04669336312950      0.38999589172754     -0.62366869630755
  H          -1.23620895134958      1.94291362128432     -0.42755851710699
  H          -0.53937048499620     -1.96858706520703     -1.75168822704912
  H          -2.02036074581787     -0.99617963522928     -1.71848164247623
  H          -2.01391662636169     -2.65119207561931     -1.08573822494224
  H           0.53504872865541      1.37838836630644     -1.83059463169301
  H           2.21532181036779      1.17498169660228     -2.29799592429948
  H           1.19799209911112     -0.25355597147248     -2.02203201809190
