16
Coordinates from ORCA-job geoopt E -346.707032647175
  C          -2.27125052570993      0.31118404516178      0.14205713432384
  C          -1.76337932666243     -0.97064680481881      0.33868543653407
  C          -0.40440070001586     -1.21790267319649      0.15378884291690
  C           0.45799948418265     -0.18854231991786     -0.22996446542301
  C          -0.06052518546521      1.09553501270747     -0.42601804582686
  C          -1.41676884563462      1.34480001142323     -0.24153612506548
  C           1.93393338046664     -0.44207981009043     -0.37241979779711
  O           2.66834178234519      0.01850901711296      0.78436911243420
  H          -3.33101764441700      0.50498917943536      0.28276820278026
  H          -2.42608478986706     -1.77963582252932      0.63365677961772
  H          -0.00745181713113     -2.21941610156206      0.30487504931079
  H           0.60532471197369      1.90074878337808     -0.72892234835862
  H          -1.81092144813713      2.34462453871464     -0.40211040091267
  H           2.12117638210603     -1.51176379251692     -0.53753505076763
  H           2.34292789983043      0.11769680450313     -1.21914705923203
  H           2.31641744433576     -0.45670096820476      1.54937968326563
