19
Coordinates from ORCA-job geoopt E -385.999160319139
  C          -3.66064485745835      0.09423222864481      0.00004464837784
  C          -2.28658305211901     -0.52993839918098      0.00037988315199
  O          -1.32363538030156      0.54753556797890      0.00054589961920
  C           0.00597495031054      0.21849804728082      0.00042105291554
  C           0.49269998947350     -1.09156616153407      0.00014519478152
  C           1.87225174229699     -1.30405008193742     -0.00021745017005
  C           2.76407021344118     -0.23715263311418     -0.00029931082877
  C           2.26464872471593      1.06685776276406      0.00005433314839
  C           0.89652859157918      1.29889939132745      0.00042977210478
  H          -3.81121485438768      0.71231133844816     -0.89065823391129
  H          -4.41620287198093     -0.69756292787744      0.00033938652123
  H          -3.81129964443245      0.71304547875789      0.89022434940390
  H          -2.13425160478370     -1.15213198470888     -0.89175649567452
  H          -2.13461887534132     -1.15211415848605      0.89259034907829
  H          -0.17813153060521     -1.94285691883080      0.00015552261482
  H           2.24512114261124     -2.32481503738306     -0.00046648982813
  H           3.83506149176525     -0.41550447195331     -0.00061809539269
  H           2.94720456649454      1.91242194894673      0.00000911559007
  H           0.49955107722186      2.31017223365737      0.00065612769787
