14
Coordinates from ORCA-job geoopt E -2734.545954586533
  C          -1.23508047850906      0.00003553398697     -0.00000044196258
  C          -0.56778929029200     -1.21221273892885     -0.07924764627277
  C           0.82946264433787     -1.21439085761387     -0.07926443379269
  C           1.52395174025318     -0.00004405767424      0.00000575338067
  C           0.82953578414341      1.21434325766969      0.07927004897055
  C          -0.56771726746354      1.21224489579390      0.07924744532045
  Cl         -1.47426205803293      2.67955336934845      0.17447531453784
  Cl          1.68440367803314      2.70826000450761      0.17625598492611
  Cl          3.24902697117539     -0.00009452101529      0.00001540485473
  Cl          1.68424874081383     -2.70835483445251     -0.17624055138027
  Cl         -1.47442155244714     -2.67946454403882     -0.17447422583194
  N          -2.71356688081558      0.00007800823381     -0.00000122025900
  O          -3.26204403208896      0.06186788655497     -1.08646531968499
  O          -3.26205280740760     -0.06166419957181      1.08645917149390
