13
Coordinates from ORCA-job geoopt E -361.542318867747
  C           1.33854761546676      1.32963299866607      0.00001873942520
  C          -0.02836927617555      1.11977708245803      0.00000784806085
  C          -0.49433378687357     -0.19938390165335      0.00000911890476
  C           0.43639175977050     -1.24061209111084      0.00002169342225
  N           1.75979079475281     -1.04955779795406      0.00002452879239
  C           2.18646782886803      0.22295259020150      0.00002286258035
  C          -1.92342850005504     -0.52661043277135     -0.00000890130813
  O          -2.81960223792186      0.30851378624940     -0.00006437094967
  H           1.75589964814793      2.33136506523828      0.00002321231324
  H          -0.73107539291748      1.94820379633922      0.00000319981632
  H           0.08954442200421     -2.27373531157056      0.00002481218136
  H           3.26510872163157      0.36786842074919      0.00002725188547
  H          -2.16215925739832     -1.60830088824153      0.00002288787561
