8
Coordinates from ORCA-job geoopt E -3112.918667506764
  C           1.21670855923433      0.57442600151286     -0.00009459482213
  C           0.30388031623419     -0.62214286724928     -0.00010782612761
  Br         -1.56976115625430      0.04475421163941     -0.00038815077543
  Cl          2.94496419149015     -0.04758108700835     -0.00016968234140
  H           1.10683759456764      1.18570259167878     -0.89704110235519
  H           1.10689448926746      1.18563032974671      0.89690751819640
  H           0.40677872321308     -1.23049124330164      0.89811076153693
  H           0.40701246784745     -1.23065770321848     -0.89818647791157
