18
Coordinates from ORCA-job geoopt E -402.051058824524
  C          -2.60800067348373      1.47114319240713     -0.00868859499668
  O          -2.22610098279081      0.08833411304429      0.00498931297744
  C          -0.88325887658656     -0.20155378755688     -0.00224782351655
  C          -0.56283848583466     -1.56483892213844      0.00674916118081
  C           0.77689216400103     -1.93217575066781      0.00704868107967
  C           1.79267679555848     -0.98089499045055     -0.00390057322157
  C           1.46436780674315      0.38217754395726     -0.01623345960556
  C           0.11306188773688      0.77126727432762     -0.01316948605936
  N           2.46041814069184      1.34909544893232     -0.09140701330467
  H          -3.69923130525618      1.47614421931853     -0.00411538508873
  H          -2.24421790783035      1.97307544946881     -0.91326853548651
  H          -2.23681471147119      1.99302334760585      0.88147944884859
  H          -1.35674931487997     -2.30483113781154      0.01711173768284
  H           1.03788489033797     -2.98730114422334      0.01895282696025
  H           2.83615280437898     -1.28468265776671     -0.00261481285688
  H          -0.12824764199848      1.82901117753749     -0.01883770990812
  H           3.35926563882063      1.05057748146369      0.26176987355446
  H           2.19415880986297      2.25754686055229      0.26327547536057
