27
Coordinates from ORCA-job geoopt E -3184.820398130582
  C          -2.69568220362786     -1.18846577628853     -2.02404057154582
  C          -3.48951600060650     -0.91925966327563     -0.74953597543516
  C          -2.62021563846069     -0.88756098634205      0.51258644193858
  H          -2.20410342264271     -1.88787065846480      0.64690074090942
  C          -3.39310391118306     -0.52804289638902      1.77609467521889
  N          -1.40676773461067     -0.03074332797007      0.33294293640093
  C          -0.14619372740006     -0.67585508124861      0.29526638553794
  O          -0.05319169078344     -1.89059525246381      0.47498264871879
  C           0.98055995274857      0.19034983732106      0.04936494504900
  C           0.83958322204533      1.52737820342528     -0.15941282340522
  N          -0.42504892337514      2.03992582897514     -0.13263454312413
  C          -1.58025259622530      1.31594041663748      0.08310291396428
  O          -2.67619642047167      1.87570033933237      0.05431387378379
  C           1.95118805719149      2.48180590250002     -0.41815089939821
  Br          2.69766606959731     -0.61181811420267      0.01314805026794
  H          -3.36814511651350     -1.30557039047217     -2.87979305685935
  H          -2.01116013343042     -0.36335828655627     -2.25463467579788
  H          -2.10031569940382     -2.10477854634845     -1.93514216402690
  H          -4.06111163712646      0.00913520578892     -0.84545571661879
  H          -4.21732483119653     -1.72456847024747     -0.58981301889057
  H          -3.87950907687758      0.44700747785060      1.70382849139904
  H          -4.16741314738229     -1.28642218671794      1.93157208922224
  H          -2.73800275939966     -0.53370474020541      2.65292402538128
  H          -0.56006555938248      3.03045821485874     -0.29974719734182
  H           1.57919499916881      3.50250796975065     -0.52758442602373
  H           2.48554343733573      2.19998350833057     -1.33124147713612
  H           2.67258416621262      2.45285533942208      0.40457988741157
