21
Coordinates from ORCA-job geoopt E -312.210233463801
  C           3.86240430736125      0.34241262437475     -0.00445444396782
  C           2.58842654575688     -0.49788189911303      0.01981047892056
  C           1.32042226311750      0.35364622001032     -0.01516588674082
  C           0.03902851558035     -0.47758793448995      0.00478266554988
  C          -1.22629102227817      0.37948580908237     -0.01467609640928
  C          -2.48726863165035     -0.46837959018974     -0.00490162401147
  O          -3.69030020376116      0.32629822862402     -0.01212174137311
  H           3.90157310408789      1.02124780531677      0.85572748747901
  H           4.75944574620217     -0.28572176000960      0.02473939734987
  H           3.91228343792854      0.95429637631446     -0.91293045235479
  H           2.57723952024872     -1.12482243266304      0.92217437188200
  H           2.58467499844472     -1.18691156998662     -0.83617870796734
  H           1.33171615829948      0.98399206948261     -0.91629084138666
  H           1.32177672773717      1.04047969963342      0.84386490162096
  H           0.03362076966472     -1.11441849812823      0.90104066739491
  H           0.03282532142370     -1.15655762757229     -0.86014182485086
  H          -1.23024565961972      1.02086520607117     -0.90665377044722
  H          -1.23590234653801      1.04330014439119      0.86213975220211
  H          -2.53743487570605     -1.09090708320539     -0.90548683006065
  H          -2.48629966808114     -1.13955819895434      0.86758572413527
  H          -3.68658394021850      0.85300039571114      0.79780387103546
