17
Coordinates from ORCA-job geoopt E -384.809584843154
  C          -3.30768054702426     -0.25691883769318      0.01152109018333
  C          -1.82039763927331     -0.07740203821127      0.00559887463535
  C          -1.24519565586545      1.19521066974812     -0.06388393277437
  C           0.13474393226979      1.34793423568736     -0.06598574681522
  C           0.96847025607234      0.22564813208404      0.00071518395552
  C           0.39857211651777     -1.05616561524542      0.07055412116482
  C          -0.97553130681038     -1.19963361507123      0.07270709249736
  C           2.41406582536945      0.42439643574297     -0.00569882454541
  O           3.24822152701625     -0.47716031309347      0.04365068008312
  H          -3.82765394997682      0.69988971963744     -0.07775580701916
  H          -3.62282047338605     -0.90441752144352     -0.81466174120555
  H          -3.63382174489685     -0.74425168215962      0.93781032047165
  H          -1.88759328488785      2.07012437829050     -0.11648028251796
  H           0.57665561845134      2.34042383298790     -0.12015013526182
  H           1.04562069026295     -1.92737802762821      0.12202176521253
  H          -1.41685459578880     -2.19201330628551      0.12666947660843
  H           2.74235075224991      1.48193579165307     -0.06062943677262
