34
Coordinates from ORCA-job geoopt E -2575.247392078716
  C          -0.30314241876602      2.95797527765127     -0.45702475403561
  C           0.43425145391160      2.33682607397524      0.70336741816920
  O           0.07849136156643      0.92272104644554      0.90827061367199
  P          -1.37543402862060      0.48351076438013      1.42696320605203
  S          -2.21509679654291      1.63199300403250      2.75879526729560
  O          -2.13617850532043      0.29860857543087      0.01643733316137
  C          -3.55737736525042     -0.06894907147065     -0.01714327802626
  C          -3.90507376190503     -0.35574448078088     -1.45465228727170
  S          -1.11075263643933     -1.45276260987246      2.21757753834620
  C          -1.00439807626390     -2.57553634265003      0.73938480595524
  S           0.66276041981467     -3.13151495077755      0.24830373430323
  C           1.26202100714787     -1.69597948509489     -0.63290038500223
  C           0.56867820441286     -1.18670604719665     -1.73343543225213
  C           1.03651270341611     -0.05677047454223     -2.39185227964510
  C           2.21619619860062      0.53604403780085     -1.95438768560893
  C           2.94011609090816      0.02430846671890     -0.88591555125492
  C           2.45102873854128     -1.09496539499867     -0.21922263962538
  Cl          2.79985186248987      1.98018176171263     -2.77200926780060
  H           0.10975582024535      3.95723050496252     -0.63404763214015
  H          -0.17686210632249      2.36673801414331     -1.36906150292312
  H          -1.37213897716700      3.06551771052883     -0.24796129096563
  H           0.24849218186757      2.87306252201374      1.64001983152356
  H           1.51139978673339      2.29756154231515      0.52246545873246
  H          -3.71043449765877     -0.94891592564826      0.61932765169914
  H          -4.13434641486358      0.76963604404583      0.38624278065760
  H          -4.96474064148165     -0.62285725816744     -1.51828984200905
  H          -3.73231424079870      0.52459048824300     -2.08128891016200
  H          -3.31365821740653     -1.19165954879572     -1.84160149181878
  H          -1.52491315276537     -2.11201669426455     -0.10195595984018
  H          -1.55153753259423     -3.47763154193970      1.03109806179214
  H          -0.34505112417912     -1.66027175021336     -2.08087691405935
  H           0.49181816015225      0.34904954467763     -3.23785766066285
  H           3.85897701950345      0.49900275224276     -0.55801853200678
  H           2.99312621133461     -1.48415463580768      0.63720073925101
