19
Coordinates from ORCA-job geoopt E -683.739884236627
  C          -3.80258639551136     -0.09143903951611     -0.36580893196006
  C          -2.91759332756875     -1.13467569096476     -0.61901344190728
  C          -1.56112524980221     -1.01075904202971     -0.31947349288653
  C          -1.10713322591974      0.18635472632893      0.22461388486179
  C          -1.97643764132940      1.23989344832755      0.48934741250460
  C          -3.32650521453738      1.09380497429099      0.19319608583119
  O           0.22652720995646      0.41637276071080      0.56814330127099
  C           1.19640542464879     -0.39511352917813      0.00393986206041
  H           0.98446531338064     -0.66153377724466     -1.04002731085443
  C           2.52276763145742      0.34472154351213      0.13975700032737
  F           2.48016829041796      1.45956225289515     -0.65538055117187
  F           3.52162531566308     -0.45935329795394     -0.33933551457746
  F           1.31859697208063     -1.58165602718681      0.73542714367631
  H          -4.85726643830041     -0.20108861081590     -0.59886478311455
  H          -3.27866913278508     -2.06583729261843     -1.04596415831015
  H          -0.89026378097349     -1.84327662355044     -0.50270107865108
  H          -1.58803019847612      2.15901547744324      0.91738724541798
  H          -4.00770719704472      1.91517643019116      0.39584125840190
  H           2.75573719614368      0.64023367175893      1.16925196188088
