19
Coordinates from ORCA-job geoopt E -386.010754723881
  C          -2.53201365325329      0.14005417751059      0.53047069597504
  C          -1.99082927421591     -1.12361822634313      0.29616791292578
  C          -0.71485011166361     -1.24863691084625     -0.24512077763860
  C           0.04150490987696     -0.11528505624309     -0.56609809334966
  C          -0.51088332953749      1.14690189054474     -0.32602377829005
  C          -1.78815016395091      1.27479821933352      0.21798787756278
  C           1.44631908858939     -0.25807997097470     -1.08895792986487
  C           2.45327743153032     -0.48107599661278      0.04133439564022
  O           2.52068025027348      0.63173694071745      0.94709207788943
  H          -3.52879340370749      0.23814189121281      0.95144615446979
  H          -2.56691511406210     -2.01418840111898      0.53302102748703
  H          -0.29808934216346     -2.23714698492535     -0.42689233219759
  H           0.06316487596632      2.03658919978679     -0.57522195693385
  H          -2.20269437056371      2.26368035852675      0.39484211750440
  H           1.51248450751341     -1.11912143743537     -1.76563495508102
  H           1.73583336561040      0.63706206187737     -1.65169624847943
  H           2.20262337792010     -1.40187771757664      0.58890155167232
  H           3.45947047083728     -0.59240799958477     -0.37513607353266
  H           1.64856344640031      0.72737567295103      1.35481635724095
