20
Coordinates from ORCA-job geoopt E -664.537890064574
  C          -4.54739352470132     -0.78764225380994     -0.00027990894758
  O          -3.09760052452366     -0.85495930471458     -0.00073883298321
  C          -2.45967034745176      0.32100389238099     -0.00004366117540
  O          -3.02861098336438      1.40071424132836      0.00145828048518
  C          -0.97806634149790      0.16842862500918      0.00006617112746
  C          -0.20011351040840      1.33043033592157      0.00104716326644
  C           1.18219637152964      1.24558032505790      0.00104080200138
  C           1.76529170761807     -0.01669106105476      0.00014067221570
  C           1.01706950399729     -1.18836246262899     -0.00074179365043
  C          -0.36550163344544     -1.08949900459711     -0.00079050121921
  N           3.23109515290613     -0.11592975763947     -0.00006560235047
  O           3.73710007317713     -1.23506692800200     -0.00011771442954
  O           3.88244676176315      0.92549772338950     -0.00055927925741
  H          -4.88207910750061     -1.82437694458058     -0.00132460778428
  H          -4.89844285265998     -0.26923943007002     -0.89610680637232
  H          -4.89793536360959     -0.27121562279824      0.89688855951111
  H          -0.68247748690702      2.30171411789051      0.00177511027143
  H           1.79443849221918      2.13909540187551      0.00175831948785
  H           1.50379502756469     -2.15600360140046     -0.00143302905213
  H          -0.96332379770520     -1.99317664815738     -0.00152002814458
