13
Coordinates from ORCA-job geoopt E -472.785506492102
  C           2.87721389883101      0.00277000545389      0.31033875959276
  C           1.51999387307797      0.01606370410710     -0.30753473866289
  O           1.14582551812867      0.85124514466038     -1.11442108076995
  C           0.59934323641515     -1.10442717964135      0.14201977515246
  O          -0.72763502562693     -0.97644478268246     -0.38423760732066
  N          -1.45191873212495      0.11201041831124      0.18047988932957
  O          -2.53478492142198      0.25500135105420     -0.32679874372346
  O          -0.93555527434132      0.73303762614635      1.07497208235360
  H           3.56547880738208      0.63159941660200     -0.25675767266786
  H           2.78555505747622      0.39643274502199      1.33155861642109
  H           3.26044052504970     -1.01942743348498      0.39585919891419
  H           0.59462328083407     -1.20660964281324      1.23298844816733
  H           0.95549467842031     -2.04749622663512     -0.29033846028618
