25
Coordinates from ORCA-job geoopt E -1007.841944887573
  C           2.64243626972031      2.84699797799179     -0.83767178350355
  C           2.13230655823661      2.62495551672941      0.58076445283588
  N           0.68799707740316      2.40414664773066      0.63771757489907
  C           0.09093378005335      1.23487280236938      0.35489213302042
  N           0.83810456707701      0.12800347399258      0.23136654765309
  C           0.14971069543310     -0.99750659456617     -0.01182145784963
  N          -1.21286889531875     -1.07579177950732     -0.14145514699847
  C          -1.79336756914812      0.09293901594897      0.00383720178927
  N          -1.27428234056825      1.27589344077508      0.24498166249657
  Cl         -3.56129746980769      0.07313901971502     -0.15374349902299
  N           0.82014818875420     -2.14794548906862     -0.14423738184277
  C           2.27381932806235     -2.27247041684875     -0.04588387693236
  C           2.68115055315663     -3.72036792793979     -0.24748528473611
  H           3.72436779397001      3.01589793404138     -0.82070248730952
  H           2.44062498096067      1.97716648997443     -1.47081201414262
  H           2.16617550002795      3.72321655569473     -1.28985804288435
  H           2.34361828427155      3.50344718629754      1.19829740325625
  H           2.63501732286491      1.77236992326393      1.04412227026604
  H           0.09184752564105      3.21935108013384      0.59859103245301
  H           0.27655278018503     -2.97805390790675     -0.33353124592346
  H           2.74980846804021     -1.63419465640980     -0.80065359425376
  H           2.60750200656214     -1.91632573660754      0.93652869924243
  H           2.23520263202350     -4.36751421225546      0.51536985854320
  H           2.37708207295874     -4.08412896363722     -1.23486147962326
  H           3.76859709434033     -3.80780552671132     -0.17374698433238
