22
Coordinates from ORCA-job geoopt E -3220.660022738438
  C           1.67621836063275     -1.36504014667741      1.13844988682425
  C           3.05311674102611     -1.51856945103384      1.21835824077225
  C           3.88382425616026     -0.77517826115291      0.38783006660082
  C           3.32789298777899      0.12136574057740     -0.52768886923460
  C           1.95085884810581      0.27942623805999     -0.60433312633918
  C           1.11590797187094     -0.46046107978413      0.23399123231714
  C          -0.35674877018327     -0.33702325901844      0.13246581688064
  C          -1.10048890039887     -1.48553928812826     -0.13401499486932
  C          -2.47980996630805     -1.43369730542673     -0.24730402501378
  C          -3.16171455607127     -0.22441548319717     -0.09875491450929
  C          -2.42979402585718      0.93587472751746      0.18388676635319
  C          -1.03686491909422      0.87492751029782      0.30330881872747
  Cl         -0.15643158207049      2.31506719748546      0.73401905574351
  Cl         -3.26076045051138      2.44076432278152      0.40106715251253
  Cl         -4.88473503058700     -0.15953192481870     -0.25389191868893
  Cl         -3.34670765643391     -2.90409535738885     -0.59063360989337
  Cl          4.34120188752658      1.05592963045220     -1.59993112156357
  Cl          5.61217654324535     -0.98439107289702      0.50709658176774
  H           1.03492416462797     -1.94533953901797      1.79456299322481
  H           3.48680204813431     -2.21412803028386      1.92892474522748
  H           1.53379254697951      0.96597692028043     -1.33337268794998
  H          -0.58532905567294     -2.43034071062698     -0.27065208128979
