39
Coordinates from ORCA-job geoopt E -1269.351725930657
  C          -4.26010252254912     -2.05155057826195      2.10751087864748
  C          -3.58215867165906     -0.80346948964172      1.54939194297116
  C          -2.56975166295993     -1.19620806370163      0.47198780540956
  N          -1.81763999848672     -0.03457586443317     -0.02253824018119
  C          -2.59289065192325      1.10616444298235     -0.53090078763453
  C          -3.56936252106117      0.68718384688570     -1.63131177373672
  C          -4.27624522797000      1.91568809681938     -2.19691501897535
  C          -0.46294048764894     -0.01703100419070     -0.01363446961698
  C           0.30028937858848      1.14923981260599      0.29055822373145
  C           1.68207516542137      1.18730292293500      0.26582694237506
  C           2.40034392849848      0.02351380444192      0.01326095367956
  C           1.72428691431459     -1.15807529969750     -0.24780714083616
  C           0.33875287021181     -1.15897106635462     -0.30306853109721
  N          -0.23982435294761     -2.36635480305108     -0.89025239601729
  O          -1.14440033275659     -2.23941532760237     -1.71218116354277
  O           0.25582838879002     -3.44913307650921     -0.57994574022375
  C           3.89557553430900      0.06926961807638      0.05616104999255
  F           4.38853331330435      1.09923583585938     -0.67605028811484
  F           4.36299436652234      0.24742203975103      1.32142695813040
  F           4.45944024660256     -1.06280503049621     -0.41350287026908
  N          -0.32695378632183      2.34229437136298      0.86200901426370
  O           0.12497808544263      3.43837517353982      0.53619783177047
  O          -1.22469457769825      2.18777807095388      1.68556109745427
  H          -3.52875934952851     -2.73122896366270      2.55925607267916
  H          -4.99166918193372     -1.78429682651687      2.87627789299823
  H          -4.78734461287170     -2.59934437632640      1.31815707295037
  H          -3.06485338154506     -0.25912564251912      2.34914719482107
  H          -4.34061708424198     -0.13029579721097      1.13451755013811
  H          -1.85779182038079     -1.89691425860724      0.92106683756899
  H          -3.07763711682576     -1.71801345171109     -0.34999146021594
  H          -1.89311201055060      1.82914556919388     -0.96338354693395
  H          -3.13373976185117      1.60973199353740      0.28128200307048
  H          -3.01786962150822      0.16482403256359     -2.42281910471445
  H          -4.31367093394413     -0.01298686267402     -1.23590709720081
  H          -4.98134784544353      1.62938281837676     -2.98334303660465
  H          -4.83874238810351      2.44036965418936     -1.41624081446222
  H          -3.55830742829916      2.62236397558803     -2.62829680233153
  H           2.19133925640290      2.11175391738065      0.52045714293431
  H           2.26109418270180     -2.06871850057494     -0.48855411527697
