29
Coordinates from ORCA-job geoopt E -2750.024168756383
  C          -4.60389427124071     -0.02220265753745      1.69481282838045
  C          -3.18207355345962     -0.46704861651924      1.47420788160899
  O          -2.31052021546539      0.72320380693679      1.32927765030366
  P          -1.68180206020917      1.12707219638280     -0.06947164765213
  S          -0.53944829642886      2.68370357727265      0.01893830119174
  O          -2.94634846704283      1.12237510206101     -1.03797332063600
  C          -2.80046964252179      1.41869747950896     -2.47401153999638
  C          -4.18327875670053      1.42441840182678     -3.06825423344607
  O          -0.92051712734879     -0.22805513896663     -0.64926730436906
  C           0.35710345245863     -0.53871610538619     -0.27686465782467
  C           1.35251181404910     -0.62445799564234     -1.25009549856524
  C           2.62850941743373     -1.00238390353863     -0.86385647657329
  C           2.86773830291103     -1.27398175228622      0.47722235709895
  C           1.80682281812433     -1.15360230507267      1.37567661827422
  N           0.59310668641198     -0.80287738365569      0.99698564724715
  Cl          2.03850176456028     -1.47336577160630      3.07487260539987
  Cl          4.45864866673610     -1.74593609939026      0.98817681593418
  Cl          1.00658876899264     -0.25967133144492     -2.91268458563770
  H          -4.99109008085300      0.51303594237073      0.82283443262396
  H          -5.22721542965956     -0.90723724655641      1.86232156245980
  H          -4.67964285082983      0.62277155296673      2.57532681410938
  H          -3.08090913317843     -1.10273089962136      0.58940385200598
  H          -2.77789133349280     -0.99846364689998      2.33927439518795
  H          -2.30862852932534      2.39219211941322     -2.57235761780305
  H          -2.16803294504158      0.64294738643188     -2.91753442307051
  H          -4.80619113190065      2.19527713975937     -2.60486198291315
  H          -4.10567332722786      1.64005075528847     -4.13871230977091
  H          -4.66678600214358      0.45049368693644     -2.94669508281381
  H           3.42832282689254     -1.08041837473156     -1.59253539695428
