29
Coordinates from ORCA-job geoopt E -802.668250822731
  C           2.67130502708548      3.43255647552854     -0.04255610661870
  C           1.40821725992651      2.80225839030029      0.44187251446757
  O           0.28006865395000      3.18731604617748      0.19269970501331
  O           1.66562342422977      1.72441058631852      1.22280466342723
  C           0.52230532815794      1.01588530506924      1.75831463084322
  C          -0.04465427673909      0.05513597957209      0.73532905475468
  C          -1.29866627848660     -0.60808824348769      1.27844924613730
  O          -1.75754764785547     -1.65319492004794      0.38872154105330
  C          -2.43747515444576     -1.26681293567700     -0.71815978203062
  O          -2.71964862908728     -0.10602860049159     -0.95284723057507
  C          -2.78190112991384     -2.43970602503401     -1.57409792144795
  O           0.96329513002222     -0.96766938143246      0.50478526467544
  C           1.11308664442284     -1.44293373187456     -0.75457254662393
  O           0.48902654033947     -1.02483717304172     -1.71371632720420
  C           2.11646965512680     -2.54753143666708     -0.79644156994311
  H           3.25604382866785      3.78443766225695      0.81367907706135
  H           2.44032782413188      4.26838367716379     -0.70252059455015
  H           3.27788059991108      2.69102544922744     -0.57147544981190
  H           0.90521020766747      0.47435497156722      2.62660131689513
  H          -0.24753940969306      1.72531232974075      2.07540340727280
  H          -0.25082214871463      0.57014609414354     -0.20623738125383
  H          -2.08397824272910      0.13853265101201      1.42847186826307
  H          -1.08759773977422     -1.11891834808497      2.22137637251975
  H          -3.36982149701878     -3.16071013119308     -0.99749917029310
  H          -1.86181924092159     -2.94329496117562     -1.88871314876701
  H          -3.34444016067582     -2.11107684845547     -2.44768144706201
  H           2.96408540757803     -2.33605506789409     -0.14061616367119
  H           2.44990823718391     -2.70740735498897     -1.82205733384906
  H           1.63234020055395     -3.46180545363160     -0.43283010728232
