28
Coordinates from ORCA-job geoopt E -370.935109108355
  C           5.11849292959524      0.36894157064731     -0.00003266024298
  C           3.84985143112772     -0.47986368415255      0.00010258764052
  C           2.57551257486348      0.36312553888683     -0.00004535957953
  C           1.29801200323415     -0.47434171207157      0.00005802267495
  C           0.02469524334759      0.36994162145269      0.00004317212781
  C          -1.25266473277533     -0.46824622976808     -0.00005007224106
  C          -2.52627913832034      0.37623081007248      0.00010185543945
  C          -3.79648827490946     -0.46986012979044     -0.00013832449324
  N          -5.05836365574438      0.29394086066459      0.00005871878596
  H           5.15869296245985      1.01518474796170      0.88487652650043
  H           6.01994016136478     -0.25361888521592     -0.00006458873430
  H           5.15856622036112      1.01508952340417     -0.88501783794887
  H           3.84689810252517     -1.13836667819028      0.87985691851907
  H           3.84690934010629     -1.13867601701421     -0.87942003189065
  H           2.57841171147173      1.02292854646243      0.88020809202575
  H           2.57844312229027      1.02266907045328     -0.88049144769952
  H           1.29615482702594     -1.13376378898720     -0.88034515878505
  H           1.29621540999772     -1.13364128877091      0.88055191137741
  H           0.02599048139076      1.02911795328753      0.88051204077657
  H           0.02606133517186      1.02920038769856     -0.88036352772075
  H          -1.25394912522816     -1.12756077908855      0.88037999492969
  H          -1.25398165055709     -1.12730824735886     -0.88066872511755
  H          -2.53333889960961      1.03300363455832     -0.88257968195342
  H          -2.53339419502623      1.03261344131637      0.88307100208446
  H          -3.79402976711226     -1.12832176807340      0.87839095284378
  H          -3.79400724424985     -1.12785165301843     -0.87901926508922
  H          -5.04382250619544      0.91713012929402     -0.80411215366988
  H          -5.04392176630551      0.91654512234010      0.80468361454014
