8
Coordinates from ORCA-job geoopt E -3410.652543296197
  C           0.17716529947465     -0.37610617588589      0.56046711982646
  H           0.20302296208054     -0.35664336733078      1.65196366177969
  C           1.24255660968993      0.58299809799081      0.01501695454648
  F           1.02217058029017      1.82764535191322      0.47530686294443
  F           2.46228620236975      0.20008190519081      0.43735245477379
  F           1.26218044667260      0.62784814244737     -1.32610149454716
  Cl          0.51329091155140     -2.03529540382043      0.00247725461815
  Br         -1.60012468252904      0.22731609659489      0.00533730425815
