17
Coordinates from ORCA-job geoopt E -384.815583620441
  C          -2.48368147532895     -1.18661206095744     -0.00172531167869
  C          -1.69664407190178      0.09114610969268     -0.00031201794528
  O          -2.27178064356708      1.18117984003858      0.00084987528310
  C          -0.20942830265576      0.02336620665001     -0.00025812881687
  C           0.53006973752904      1.21477902121735     -0.00106234813580
  C           1.91686615014154      1.17974865726353     -0.00091324268035
  C           2.58458396865628     -0.04527158899933      0.00016416788191
  C           1.85921396211359     -1.23422003265295      0.00102006763480
  C           0.46917233451449     -1.20294786695010      0.00074211113697
  H          -2.23406884493297     -1.78921967782774     -0.88233791149404
  H          -3.55087257287611     -0.96032815057944     -0.00309794098912
  H          -2.23656214073668     -1.78914703826036      0.87967843144326
  H           0.00627616499975      2.16552338104211     -0.00190140904859
  H           2.48233562035282      2.10705219349394     -0.00163610052561
  H           3.67066347425350     -0.07173064288292      0.00031716053607
  H           2.37769440361172     -2.18844277172879      0.00188078178921
  H          -0.08206698897340     -2.13758758295912      0.00140859020901
