21
Coordinates from ORCA-job geoopt E -275.066248688531
  C          -3.60757574577838     -0.65628213660401      0.16714938548668
  C          -2.48253259308991      0.22980864561051     -0.36035071330023
  C          -1.12041788613394     -0.14328467643653      0.22143776395363
  C           0.01808735135786      0.73621938131267     -0.31377386935202
  C           1.33912371710071      0.40542220724934      0.31042058440082
  C           2.40358963395208     -0.05925665973869     -0.34687584129690
  C           3.71585553590019     -0.40740806284795      0.28074889817074
  H          -4.57619413721366     -0.37171976332737     -0.25811910344707
  H          -3.42889879992348     -1.70869884538174     -0.08297824170038
  H          -3.68681068037668     -0.58272538859429      1.25822473451397
  H          -2.69833259604387      1.28127065351819     -0.12561173283194
  H          -2.43910214796403      0.15890124562802     -1.45600630019806
  H          -1.15730213419796     -0.06221589476386      1.31736944242459
  H          -0.89890942664617     -1.19555014619041     -0.00647805507174
  H          -0.23252292030237      1.78781267852135     -0.10742408400778
  H           0.08481476492691      0.63032289057051     -1.40471154408629
  H           1.40798647005189      0.54374330763470      1.39292813916996
  H           2.32971420052989     -0.20094076694543     -1.42784650417159
  H           3.97200876718186     -1.45962632767538      0.10230301712796
  H           3.70231949775104     -0.23506053183877      1.36174747979542
  H           4.53091713541800      0.18617569409916     -0.15277614457976
