17
Coordinates from ORCA-job geoopt E -326.832365293735
  C           2.77661523461342      0.00035076911697      0.73658152784223
  C           1.99058456760605     -0.00038705363240     -0.58128903060837
  C           0.50975559741425     -0.00020559743718     -0.33012077435737
  C          -0.20485210444595      1.19012657229369     -0.18134255907970
  C          -1.56336939271943      1.14112636639019      0.09929392492182
  N          -2.25644916957704      0.00017184682045      0.24261602365759
  C          -1.56365926765421     -1.14096757194838      0.09941181792985
  C          -0.20515069514149     -1.19033741407149     -0.18122742141679
  H           3.85382691445852      0.00039923897188      0.54150964476966
  H           2.53610312567408     -0.88609886319201      1.33339160545306
  H           2.53587511709431      0.88730634244719      1.33254823980065
  H           2.26134074928461     -0.88614919646884     -1.16707610767347
  H           2.26139816145127      0.88467711743398     -1.16810632765117
  H           0.29284507079623      2.15096255819868     -0.28712887044459
  H          -2.12746033912589      2.06573258034768      0.21231107047869
  H          -2.12798079243728     -2.06542167864492      0.21252497245109
  H           0.29230642720856     -2.15130760622551     -0.28691772067319
