19
Coordinates from ORCA-job geoopt E -535.274456543044
  C          -3.83723860932849      0.68364980142367     -0.00039825679430
  O          -2.39446918999962      0.80855121153197     -0.00038944914480
  C          -1.70418893500864     -0.34890359902087      0.00007342964327
  O          -2.25231190251635     -1.44494324233028      0.00049578705699
  C          -0.24541367382225     -0.14758403848827      0.00004789676152
  C           0.33659879141188      1.12793327379601     -0.00001777482386
  C           1.71386201425872      1.27321637196834     -0.00004430422439
  C           2.52845158921565      0.13672140629936     -0.00003894610682
  C           1.96286345028067     -1.14198798084481      0.00001410036539
  C           0.58689184129443     -1.27620164350262      0.00006125617864
  O           3.89016975315076      0.21788346266174     -0.00007214493649
  H          -4.17274162679841      0.15476756472161      0.89568090568070
  H          -4.17264664545967      0.15370511465481     -0.89588332646181
  H          -4.21437421098094      1.70622748254910     -0.00102340472483
  H          -0.28786590677837      2.01448684421994     -0.00000041488108
  H           2.16658863579985      2.26162017544272     -0.00005520072825
  H           2.61028202474900     -2.01350614276347      0.00002420741420
  H           0.14323302328398     -2.26682517486501      0.00011564830405
  H           4.16070925454782      1.14776412684606     -0.00007914507814
