13
Coordinates from ORCA-job geoopt E -269.495912924283
  C          -1.77016529319381     -0.59195997468479      0.26279884401511
  O          -0.98713683072969      0.19051513150891     -0.65149357498382
  C           0.00000822272472      0.96400525097309     -0.00008373523400
  O           0.98715770966542      0.19061909502395      0.65144318182200
  C           1.77018716138105     -0.59199419406496     -0.26273019634563
  H          -2.20455581034472      0.04603424987932      1.04494818751634
  H          -1.17006465036765     -1.38105599533680      0.73184803826575
  H          -2.57244946855286     -1.05003265176358     -0.32000713745542
  H           0.45074128137657      1.58570879455138     -0.78659204289419
  H          -0.45072821434558      1.58582501528490      0.78633078113941
  H           1.17008958215891     -1.38116694386737     -0.73165421171325
  H           2.57247601554417     -1.04997167389528      0.32014420092509
  H           2.20457146308346      0.04588048399123     -1.04498058995740
