13
Coordinates from ORCA-job geoopt E -174.434652509607
  C          -1.94710833295849     -0.13858375432791     -0.00001960775924
  C          -0.56954941935665      0.52007712970712      0.00007494522171
  C           0.56188126180223     -0.50441283324262     -0.00000516173569
  N           1.92257256630685      0.06327165902453     -0.00007555877586
  H          -2.08030374723338     -0.77160424070545      0.88526669382714
  H          -2.74854988928696      0.60760915181497     -0.00020025318410
  H          -2.08008364509349     -0.77179294054114     -0.88520557028177
  H          -0.46432349292337      1.16730212450276      0.88229225695824
  H          -0.46428763958421      1.16749749340497     -0.88199406423813
  H           0.46040954896525     -1.15498205309846      0.87873527571201
  H           0.46030298172323     -1.15496806873408     -0.87874293557617
  H           2.00207229332660      0.68078040493731      0.80461770473809
  H           2.00194602611239      0.68087553695801     -0.80470833050626
