17
Coordinates from ORCA-job geoopt E -309.786651736476
  C           3.42461490098427      0.73711484327659     -0.07600966513433
  C           1.90007987100658      0.67624626702719     -0.06039151663184
  C           1.39423671487288     -0.75847365322710      0.03435649330660
  C          -0.07685939377662     -0.94606247385748      0.05869068658673
  C          -1.01186287671977      0.02202147295575      0.00793542802739
  C          -2.41053880432075     -0.33953993577673      0.04403352591227
  O          -3.33977816115658      0.47070869201688      0.00571052788399
  H           3.77880694224393      1.77078931106739     -0.14498947655892
  H           3.84519440940153      0.29819241024018      0.83613836833967
  H           3.83156647812063      0.18500364983548     -0.93104344944930
  H           1.50087870249979      1.14488554727973     -0.96903854911236
  H           1.51454413171248      1.25633020991125      0.78783114070542
  H           1.80385573953188     -1.24999556913571      0.93191222428190
  H           1.78934727101617     -1.35924069665572     -0.80105999836931
  H          -0.42221759366845     -1.98002809974137      0.12549243781799
  H          -0.76171018746479      1.07861421403069     -0.05898861782983
  H          -2.62476357588318     -1.42621255824705      0.11156501242393
