8
Coordinates from ORCA-job geoopt E -3050.316862542912
  C           0.17294119752832     -0.64433184607915      0.52040266666732
  H           0.19811815845231     -0.72631180428814      1.61080388583410
  C           1.33602080488528      0.22052252248253      0.01760456605667
  F           1.29180805328801      1.44086561542343      0.57414784151033
  F           1.33069252153498      0.35448058914656     -1.31789387140018
  F           2.49936208030998     -0.36139496035322      0.36995502102113
  F           0.28344238054267     -1.87708147508295     -0.04698899688308
  Br         -1.53934398934156      0.16269862815094      0.01165056379370
