20
Coordinates from ORCA-job geoopt E -386.250656367623
  C          -3.69035992066033      0.74568341206780     -0.03672846169327
  C          -2.48997168934495     -0.15942783428368     -0.29628976214250
  C          -1.17708119627680      0.56951924084255     -0.03948896214462
  C           0.04176889374722     -0.27614999971693     -0.27634628604905
  O           0.03436557535520     -1.43798112838250     -0.65199673680209
  O           1.17339412992023      0.40538632306358     -0.02256560340624
  C           2.43134248617687     -0.31439688299868     -0.21875512050107
  C           3.54826219402712      0.64031959155867      0.11748273056302
  H          -3.70159595647153      1.09742411029970      1.00131183302735
  H          -3.66817367558077      1.62677649455067     -0.68828336096305
  H          -4.62993796443360      0.21498655669366     -0.22144092103089
  H          -2.50994848975839     -0.51894937607645     -1.33203766868311
  H          -2.54510604095789     -1.04610548339858      0.34663325647897
  H          -1.12817445781774      0.93907697748793      0.99367023091161
  H          -1.09072097726944      1.45936400645989     -0.67782010626242
  H           2.43215331264550     -1.19248763047522      0.43540388948497
  H           2.47919610373647     -0.64912252541847     -1.26019414408430
  H           4.50675074223948      0.12983822215506     -0.01909974717041
  H           3.52984443524631      1.51602417179240     -0.53859433633860
  H           3.48273549717702      0.97390659477862      1.15768879140572
