14
Coordinates from ORCA-job geoopt E -455.536101245357
  C          -4.33435092137803      0.93916584865886     -0.06139863760963
  C          -3.27352564290151     -0.03034097651576      0.45349806148935
  C          -1.86519442577149      0.37138114692898     -0.00484236321893
  C          -0.84590749855585     -0.61061906772595      0.52339657608250
  I           1.19725177217127     -0.08543549095973     -0.10338898701999
  H          -5.33468930679056      0.64316803589784      0.27179056231020
  H          -4.14603129962484      1.95607581229560      0.30134969419914
  H          -4.33988133451192      0.96941714632251     -1.15694692343895
  H          -3.49439644073864     -1.04570075832373      0.09915023561716
  H          -3.30212510955628     -0.06442383480995      1.55044712816738
  H          -1.83078946465313      0.39791149759712     -1.10070326108302
  H          -1.63742755706288      1.38195005365450      0.35521598067199
  H          -0.98602181964786     -1.62093719655759      0.13798985849978
  H          -0.78958940717827     -0.62436725486269      1.61219201963303
