23
Coordinates from ORCA-job geoopt E -276.293543923514
  C          -3.01266943836909      0.25150638117107      0.00045781197639
  C          -1.64576562014693     -0.43090544271566     -0.00051875991058
  C          -0.50584996755410      0.58770295605136      0.00239459397636
  C           0.93146003014902      0.02610867413472     -0.00005410492287
  C           1.18597691729485     -0.81632195582250     -1.25595458600908
  C           1.90265247471641      1.21411171771346      0.00517766562357
  C           1.18599951791142     -0.82744752567443      1.24830332995304
  H          -3.82721725679222     -0.48120716748570     -0.00117544722580
  H          -3.13532645221648      0.88569417676044      0.88663879253226
  H          -3.13485570078309      0.88914894787052     -0.88330025054018
  H          -1.56846842599953     -1.08425517331513      0.87790101052189
  H          -1.56769350846319     -1.08026231986370     -0.88183462805050
  H          -0.61768871140786      1.23546226414996      0.88537796953856
  H          -0.61829645775733      1.24130781403164     -0.87619528470871
  H           2.23465296151230     -1.13510322211623     -1.29741684266538
  H           0.56532581772366     -1.71874368909657     -1.27255163468963
  H           0.97243706655321     -0.24025629499741     -2.16498083676526
  H           2.94362944111252      0.86894253003803      0.00331864662282
  H           1.75435273122192      1.83776386488822      0.89533979988204
  H           1.75394328563022      1.84596147393107     -0.87912150797496
  H           0.97200217678126     -0.25970196822263      2.16244382193295
  H           0.56563098699332     -1.73017915381769      1.25659627095812
  H           2.23474708578969     -1.14632774021281      1.28708509394495
