26
Coordinates from ORCA-job geoopt E -1481.126958821723
  C           2.58995231030125      0.44096064204381     -2.65034311323529
  O           2.48886791010776      1.13730441580305     -1.36646717816572
  P           2.31568416193875      0.31770309721387     -0.01151999486671
  S           2.02566786421401      1.44948936066768      1.52697959799222
  O           3.57869966371324     -0.65774046330739     -0.04003836141897
  C           3.80654578202310     -1.58586569128453      1.06178110967091
  O           1.13705601609974     -0.79378018272816     -0.28943511547789
  C          -0.21271883359184     -0.50566723495194     -0.21288802098684
  C          -0.99575485513336     -1.38073716467407      0.53556906336125
  C          -2.36211294605796     -1.17471108060305      0.60568967999062
  C          -2.91183752313103     -0.09039472766904     -0.07474081106098
  C          -2.13293675778823      0.78623025216828     -0.82591690037385
  C          -0.76646074431711      0.57473397820860     -0.89843905418028
  N          -4.34983065568869      0.13249091766755     -0.00051516966006
  O          -5.03247195040876     -0.65964263470508      0.64999235222645
  O          -4.82344887210725      1.10396966201865     -0.59080687773938
  H           3.52792666923912     -0.11699487001797     -2.69730980570195
  H           2.57724170301337      1.22627447049810     -3.40599139858339
  H           1.73468675624217     -0.22645856356586     -2.78606676266358
  H           3.96206251077334     -1.03026198059846      1.99045186864902
  H           4.70843107343307     -2.13763867067369      0.79697316415583
  H           2.95960393488673     -2.27063094333812      1.15884461110197
  H          -0.52756333563603     -2.21001874618065      1.05500972108268
  H          -2.99038568317022     -1.84109879418791      1.18405620621801
  H          -2.58734474834112      1.61687715751653     -1.35218312540734
  H          -0.14102607031406      1.23552902057983     -1.48935819252671
