10
Coordinates from ORCA-job geoopt E -193.079972554277
  C           1.50064654128083      0.33029897354985     -0.48564635089196
  C           0.81991191404160     -0.25384237077663      0.49728731082725
  C          -0.66828695785446     -0.38184293494411      0.57309933264546
  O          -1.37188435719961      0.17231708539049     -0.53990812522517
  H           2.58509999001980      0.38665522869388     -0.45418384862907
  H           1.00431204495410      0.76796484661188     -1.34861238480915
  H           1.34968589429755     -0.68255498932957      1.34917923841440
  H          -1.01919318638563      0.06511643993081      1.51789616355361
  H          -0.94154403974701     -1.44443928688207      0.61370473992812
  H          -1.18370993180718      1.12032959105546     -0.56130598821350
