12
Coordinates from ORCA-job geoopt E -248.493101360433
  C          -2.04533483022472     -0.28534010845539     -0.46459799631143
  C          -0.92562855683342      0.15823238382653      0.46734884380062
  C           0.42307698401834      0.23583614234853     -0.21552058777799
  O           0.70038526591869     -0.44789309607250     -1.21647329035974
  N           1.31608589725692      1.07314691746741      0.34229022877048
  H          -1.85228030916795     -1.28127999008743     -0.87285442807795
  H          -2.99373081561668     -0.32017533276338      0.07953089612577
  H          -2.15936643434262      0.40973224442161     -1.30291267624651
  H          -0.81359283864570     -0.55897623387323      1.29290783911919
  H          -1.15743750647020      1.12438933614417      0.93007527269951
  H           1.07630260979297      1.62157035515328      1.15365284863340
  H           2.25454908871437      1.12566646649039     -0.02680159387534
