13
Coordinates from ORCA-job geoopt E -778.778005983940
  C           1.56025838500115     -1.28685804269770     -0.95922263614959
  O           1.25323975608523     -0.41316672659350      0.18088593102510
  S          -0.00169278194586      0.57916379462301     -0.00148753762995
  O           0.07416483384679      1.29383852835295     -1.27010266491387
  O          -0.07947428106922      1.29617073980387      1.26569514654549
  O          -1.25393329922820     -0.41693049728573     -0.18185955967438
  C          -1.55859080320295     -1.28905083679294      0.96008540606255
  H           1.83280855421800     -0.68364486512066     -1.82767471952381
  H           0.70808868730991     -1.93603849572199     -1.17473759870525
  H           2.41141840519952     -1.87662751326151     -0.62041166380734
  H          -2.40760234790723     -1.88243681675568      0.62220147607487
  H          -1.83356171269093     -0.68474817146545      1.82701330151394
  H          -0.70437888311622     -1.93489982218467      1.17751969518224
