25
Coordinates from ORCA-job geoopt E -464.620214425203
  C          -2.46908685904394      0.74177702654016      1.25237539153125
  C          -1.97134109682125     -0.00239200885918     -0.00030789457355
  C          -2.57861509432427     -1.40899019769582      0.00267910634041
  C          -2.46834132802564      0.73625286961913     -1.25656709054064
  C          -0.44110947262318     -0.03206533416643      0.00004441683311
  C           0.29727443479397     -1.21820344433957      0.00190329658283
  C           1.69232284879679     -1.21428727172276      0.00195400078742
  C           2.37913370450184     -0.00546379335529      0.00010729796682
  C           1.67024575539053      1.19537704350231     -0.00178118928846
  C           0.28187003290426      1.17083012224244     -0.00179805145575
  O           3.75705704968130      0.06264541421217      0.00006247187959
  H          -3.56532969301460      0.76387924473297      1.26641888889437
  H          -2.12506023170158      0.24113492569687      2.16478361577936
  H          -2.11184968164108      1.77650408340078      1.27584440708973
  H          -3.67126487045826     -1.33042296672482      0.00253775494415
  H          -2.28524045054708     -1.98089056366230     -0.88481172520957
  H          -2.28514593871115     -1.97708028888859      0.89258436438339
  H          -2.12399861211310      0.23145409406762     -2.16655869842880
  H          -3.56457763749435      0.75861296109729     -1.27125442265989
  H          -2.11074440395777      1.77074919245700     -1.28439040871847
  H          -0.20599128000139     -2.17926103264866      0.00338734102225
  H           2.24510528019964     -2.15117824002153      0.00340543612677
  H           2.21001559121266      2.13833724103994     -0.00322180939411
  H          -0.24682537134912      2.12041860000526     -0.00332220272687
  H           4.11408915874680     -0.83667519902900      0.00142750553465
