20
Coordinates from ORCA-job geoopt E -236.991111861288
  C           2.82591131382062      0.21064104318521     -0.15398670216291
  C           1.48278045185015     -0.38183243884824      0.26627024070630
  C           0.30477888538087      0.48919922858973     -0.16963530317199
  C          -1.06652954233812      0.03149023963472      0.34376320570067
  C          -1.42657653100179     -1.37089328703773     -0.14990479399225
  C          -2.14608204957327      1.03252791128317     -0.07098392184726
  H           2.87850423000089      0.32936717723742     -1.24288713395554
  H           2.97813044393772      1.19922486270182      0.29518102191133
  H           3.66146123339899     -0.42835274708214      0.15228517283247
  H           1.38319674243754     -1.38776116463160     -0.16050719986122
  H           1.45830987604239     -0.50293630565188      1.35859293774032
  H           0.48190876023080      1.51815134702395      0.17668015375287
  H           0.27370076713639      0.53413910020320     -1.26960899254654
  H          -1.02352900002179      0.00858308500326      1.44386262197315
  H          -2.43243518277826     -1.65489410114780      0.18055134351016
  H          -0.73041399655646     -2.13030966380567      0.22052092279451
  H          -1.41180729088417     -1.40649162059503     -1.24729539382376
  H          -1.91629797143647      2.04101788835634      0.29204226505457
  H          -2.22660744487716      1.07970545977081     -1.16476138568677
  H          -3.12761108536885      0.74628291371045      0.32401501647187
