10
Coordinates from ORCA-job geoopt E -284.293419862526
  C          -1.71667734023945      0.78224879263169     -0.48387307222118
  C          -0.88668164714104      0.09840170177913      0.56880864723940
  N           0.51341050794263     -0.23129580671036      0.10038558759353
  O           0.85238986798017      0.07572328817551     -1.03416418795833
  O           1.24602037318981     -0.80049529673887      0.90363597394252
  H          -2.70469475889177      0.97454418526644     -0.05448942935564
  H          -1.28109586650474      1.73886541421381     -0.78279543327184
  H          -1.84449288056845      0.15270741782615     -1.36798240877618
  H          -1.30211599333194     -0.86315905002230      0.88626499354926
  H          -0.73766678133523      0.71079163697881      1.46379739035846
