20
Coordinates from ORCA-job geoopt E -236.990923660948
  C          -1.49407728725265     -0.17430319839785      1.24996552189701
  C          -0.64491417155839     -0.42461813569117      0.00005156266337
  C          -1.49421494091498     -0.17441035467321     -1.24980142168234
  C           0.64490711653531      0.42457194425281     -0.00005628005859
  C           1.49418499096070      0.17439795404689      1.24981012178061
  C           1.49408903678477      0.17424459441030     -1.24995646813973
  H          -2.43742064736599     -0.72892167734314      1.19186906613663
  H          -0.98711050426119     -0.48449693403711      2.16842334109722
  H          -1.73951972228456      0.89205010352298      1.34230003632931
  H          -0.33699390693324     -1.48317190849634      0.00006514707706
  H          -2.43760829868892     -0.72892068348673     -1.19151434531799
  H          -1.73955745632081      0.89195809487941     -1.34226503648057
  H          -0.98737364782081     -0.48475272975595     -2.16827752328017
  H           0.33694541531169      1.48311314469238     -0.00010821072104
  H           2.43752723567149      0.72900626279421      1.19154413954346
  H           0.98732130801275      0.48470231674758      2.16828410139390
  H           1.73967457343738     -0.89193815009589      1.34221612598428
  H           0.98716057371818      0.48452141317844     -2.16840942397590
  H           1.73945874467461     -0.89211886111954     -1.34234075304542
  H           2.43745137779467      0.72882997747190     -1.19183535860113
