23
Coordinates from ORCA-job geoopt E -573.436555703987
  C          -6.12122232384155     -1.07498321298139     -0.19329188352949
  C          -5.11341134309087     -0.07448414404040      0.36631755138847
  C          -3.72407058289742     -0.22935417838408     -0.25021850364547
  C          -2.70605894626956      0.76544406310754      0.30360620974806
  C          -1.32016372858766      0.60869556869784     -0.31913562556617
  C          -0.30685293116505      1.59553838786567      0.25088563952325
  C           1.05135560790505      1.56740497232578     -0.40629577547138
  I           2.13482486307558     -0.32544329608410     -0.05563036081654
  H          -6.23345177337693     -0.95483800345238     -1.27736054696234
  H          -5.79754310564818     -2.10554922961014     -0.00509193706602
  H          -7.10992714579276     -0.94740610435063      0.26095162526685
  H          -5.04027475745347     -0.19522198341284      1.45608328762744
  H          -5.47388834902827      0.94877937127460      0.19164240559736
  H          -3.79644779902985     -0.10693070945665     -1.34096141668518
  H          -3.36316928938376     -1.25388044179059     -0.07698056960646
  H          -2.63006334944711      0.63923914370528      1.39346804608659
  H          -3.06871995796367      1.78969222147235      0.13386838731662
  H          -1.38662856048268      0.74857575031158     -1.40765703901721
  H          -0.96179029218216     -0.41676227350153     -0.15526717646313
  H          -0.20651759209472      1.45929612544561      1.33487863865436
  H          -0.68030702329833      2.62143307250881      0.09869679577866
  H           1.73294547720559      2.31758096605502     -0.00725239600412
  H           1.00147901494783      1.63649333379465     -1.49361222665416
