16
Coordinates from ORCA-job geoopt E -271.717631687269
  C          -2.79446563028418      0.27743399073502      0.00650105757600
  C          -1.44335638382708     -0.42763915645875     -0.07356263843292
  C          -0.28761622854605      0.55201113452323      0.07352866073456
  C           1.08545416424525     -0.05753366939217      0.00454893186461
  O           1.25712550539759     -1.27335768262091     -0.03473114521542
  C           2.24365991892522      0.89576625342104     -0.03630080680570
  H          -2.91530017709433      0.78822466812548      0.96888830257957
  H          -3.61940275556256     -0.43458671753262     -0.10110880123692
  H          -2.89452336425557      1.02922547142407     -0.78492996386202
  H          -1.35257767066514     -0.95400127956728     -1.03187988743449
  H          -1.37492785765625     -1.19168524556336      0.70995135104115
  H          -0.33555510321981      1.34682938139246     -0.68582413683103
  H          -0.34363309517373      1.08316049337905      1.03677475187916
  H           3.17590925911112      0.39073221732246      0.22511486634223
  H           2.07252917779376      1.75688142109448      0.61680131761546
  H           2.32711269551175      1.28248486561780     -1.06061264081423
