8
Coordinates from ORCA-job geoopt E -1918.103948245171
  C           0.72315063069754     -0.55399459347958      0.24190041620471
  C          -0.72315077963638     -0.55397606476076     -0.24201808281205
  Cl         -1.82072484954349     -0.67700693828269      1.18310329931220
  Cl         -1.13254585266841      0.88489485924849     -1.22900802691607
  Cl          1.82075179122534     -0.67675260257055     -1.18322678798960
  Cl          1.13248032405119      0.88471689806296      1.22914424843802
  H           0.89536368839788     -1.44177362179921      0.85616677148239
  H          -0.89534726442366     -1.44166622741866     -0.85641744711960
