20
Coordinates from ORCA-job geoopt E -535.507114541216
  C           2.78010121433251      0.84231958510707     -1.24366880875752
  C           1.77316279571654      0.45815355967704     -0.20952245395568
  O           1.12098325278474      1.24192108503344      0.45838747465453
  O           1.65788717988917     -0.88679189143169     -0.11465350494879
  C           0.65249517503618     -1.41665599886189      0.79087069047959
  C          -0.61765359709502     -1.72455084263555      0.03646235592365
  O          -1.16945845201690     -0.53983282038183     -0.59632183801123
  C          -1.83436012173718      0.33033889782797      0.19623403336907
  O          -2.03852206424080      0.13121303374376      1.38106203186356
  C          -2.29673344893162      1.52316943452777     -0.57376973491580
  H           3.08115772857798      1.88047763178482     -1.10132075257214
  H           2.31338462962540      0.73936119937606     -2.23052858830863
  H           3.64807188990427      0.17962216817549     -1.21531433625024
  H           1.06656416805529     -2.35144320729362      1.17837598176832
  H           0.49068529932508     -0.71872999579109      1.61449604484247
  H          -1.35074041129997     -2.17241903790310      0.71487139476460
  H          -0.42059962285841     -2.40831127781655     -0.79209348319124
  H          -2.64073849036274      2.29764082897969      0.11186579698041
  H          -3.12558617681638      1.22290519886590     -1.22509624601839
  H          -1.49498866218813      1.90369273881632     -1.21210285641654
