22
Coordinates from ORCA-job geoopt E -425.319238542552
  C          -4.23379425554774      0.24590046798305     -0.55138752602446
  C          -2.71806899236055      0.27536919322039     -0.71774420803610
  C          -1.98213987093319     -0.13706536735372      0.56579454257501
  C          -0.48575783637467     -0.11372071282408      0.39956404604570
  C           0.20358933917183     -1.23469613040735     -0.07146832929273
  C           1.57918435366794     -1.20557478634255     -0.28353648841174
  C           2.28878388072772     -0.03448979383738     -0.02304455712849
  C           1.62557032812488      1.09779904833318      0.44652515478237
  C           0.25053888334376      1.04863289824095      0.65156008298683
  O           3.65329356129264      0.05322125450594     -0.20980492966430
  H          -4.57996511763410     -0.76010549942688     -0.28658310229591
  H          -4.55499662078586      0.92920332648630      0.24353573724012
  H          -4.74223619848118      0.54316919664129     -1.47482355035266
  H          -2.39118487967606      1.28332490002573     -1.00690446061496
  H          -2.41660363843550     -0.39724225875961     -1.53208683563434
  H          -2.30697371490639     -1.14570351825231      0.85257081887891
  H          -2.27542926668327      0.54136944814583      1.37738485086686
  H          -0.34317193058064     -2.15308020921519     -0.27505639709925
  H           2.10355494057616     -2.08744270776618     -0.64484582174062
  H           2.18890871010169      2.00393176527191      0.65133543960975
  H          -0.26110658962777      1.93543998751125      1.01988287632959
  H           3.97878767042031     -0.79782003898056     -0.53512445021956
