14
Coordinates from ORCA-job geoopt E -639.133855355546
  C          -0.63701727959818      1.48433407220044      0.08024000358091
  C           0.58349688302780      0.81342234624286     -0.49260738788999
  O           1.25937999245094      0.20414300816047      0.64530451279146
  N           2.43695006585398     -0.48370455052160      0.30309240479197
  O           2.97196813918014     -0.99588956267735      1.25654510627274
  O           2.77890782157702     -0.48853583074743     -0.85487559867572
  O          -1.58178881590105      0.53786366963949      0.64446557115634
  N          -2.40228476193021     -0.11764438801758     -0.31141710094885
  O          -2.28030876175518      0.17972023703493     -1.47314263025916
  O          -3.14789420553800     -0.91603619176790      0.19784286746966
  H          -1.11683417360473      2.10173978157733     -0.68337394306165
  H          -0.38293961610388      2.10863998021266      0.94120593996799
  H           1.23038520454806      1.57302072958556     -0.94418320204539
  H           0.33683797119328      0.04269190867812     -1.22783890195031
