7
Coordinates from ORCA-job geoopt E -1623.686792760321
  C           0.22840216512088     -0.01032336009015      0.06346197778031
  N          -1.37500207875626     -0.00207193464265     -0.24506764456966
  O          -2.11591045815526     -0.23638988515918      0.67567704738430
  O          -1.66047219816600      0.25346661907638     -1.39128021505666
  Cl          0.94334978454653     -1.17989296030797     -1.05348905244273
  Cl          0.78740089522600      1.63657685630388     -0.26820916164834
  Cl          0.49965991948411     -0.46199623818029      1.73561645935277
