15
Coordinates from ORCA-job geoopt E -556.561016980857
  C          -1.88574970045373     -0.94730058068462     -0.24726984938723
  C          -1.21703631070790     -0.01227096726972      0.74614599523989
  S          -0.00005802179816      1.14944758445753     -0.00315145709006
  C           1.21679519903652     -0.01567162819090     -0.74740242880730
  C           1.88578405742715     -0.94607247689330      0.25016015197988
  H          -2.39035278098354     -0.38799210815717     -1.04154857989533
  H          -1.16508392575725     -1.62853754997329     -0.71050399184789
  H          -2.63347239147839     -1.56017902819393      0.27019496753329
  H          -0.72639543978761     -0.57435600127641      1.54813744930667
  H          -1.95695948494845      0.64341174263598      1.21896272966302
  H           0.72591660048874     -0.58143064190206     -1.54665738407165
  H           1.95656001997028      0.63789056155728     -1.22339371791710
  H           2.39079901491968     -0.38304395673430      1.04154780420687
  H           1.16522436986366     -1.62498414348980      0.71695227067263
  H           2.63326190640900     -1.56146671478530     -0.26466764558568
