40
Coordinates from ORCA-job geoopt E -1544.553495439802
  C           3.72102910610463      1.96119370937465     -0.98757621921844
  C           2.22929111820829      2.14620203787415     -0.85389149488089
  O           1.51907796507101      0.85954412895735     -0.83650382983063
  P           1.55776562723305     -0.10097271004315      0.44174095064837
  S           1.51204179742928      0.69210860373902      2.20588973431421
  O           2.81357517307831     -1.07254855373896      0.27432548961098
  C           3.06154324141172     -1.78885683922064     -0.99277349095279
  C           4.52871011309099     -2.12411219651764     -1.03882538456886
  O           0.36529633816594     -1.15726465458325      0.03543248975419
  C          -0.97606048737405     -0.86025013875499     -0.01517507440391
  C          -1.84388462164372     -1.93575917433036     -0.15123724216746
  C          -3.19250161364467     -1.62076168071117     -0.21818428399922
  N          -3.62055225099483     -0.33976408758721     -0.14592445518781
  C          -2.69361600317012      0.61028046220583     -0.01120412345434
  N          -1.36593226270133      0.39645181219206      0.05458458885399
  C          -3.14953764474122      2.04557939112790      0.04811211692388
  C          -2.75269083502672      2.77430348101589     -1.24280645322157
  C          -2.59123315314812      2.76502712115115      1.27895558183901
  C          -4.23445344901971     -2.67790507213993     -0.36819741585566
  H           4.15088510185942      1.47969407425558     -0.10336825429177
  H           3.96448081999137      1.36674263719519     -1.87375497737269
  H           4.18693663652632      2.94658973879685     -1.09609672806544
  H           1.80712191962040      2.65979488643902     -1.72046443777489
  H           1.96088564462450      2.69825206212760      0.05314869326063
  H           2.43510662228533     -2.68617207392035     -0.98706518118260
  H           2.76760337269306     -1.14645513153447     -1.82879902614092
  H           5.13904603000507     -1.21576300881262     -1.04449862655108
  H           4.81703672126591     -2.74383863105406     -0.18435413675815
  H           4.73483633429050     -2.68529998017157     -1.95614840429944
  H          -1.48079734929615     -2.95577592768916     -0.20159811613622
  H          -4.24283983769330      2.02546045243939      0.11402301019348
  H          -3.14508138294548      3.79666544448076     -1.22942300773057
  H          -3.15124465535255      2.26509390516097     -2.12695297276466
  H          -1.66248851993246      2.82829114239556     -1.33743967253851
  H          -1.50252723625482      2.86277593537263      1.21700995312315
  H          -2.83630947642442      2.22671764368100      2.20105890581290
  H          -3.01962786843886      3.77059031409626      1.34567358546551
  H          -4.93056783620430     -2.64177029644920      0.47706791751057
  H          -4.82169408057152     -2.49997453986577     -1.27582599446078
  H          -3.78916906277677     -3.67340456015431     -0.42087043540154
