28
Coordinates from ORCA-job geoopt E -428.918223384703
  C          -5.48141077426751      0.26058091210143      0.02134223090121
  C          -4.17516858049877     -0.52354014045819     -0.07216239529707
  C          -2.94100568339974      0.37053386296098      0.03761349109959
  C          -1.62683939907347     -0.40298875413787     -0.05059208344128
  C          -0.39476436247638      0.49408015610454      0.05186581870949
  C           0.91631564660347     -0.28608660610598     -0.02678365780811
  C           2.13224402478482      0.62394469726621      0.06963118400154
  C           3.46377156259049     -0.07222458247756      0.00230586092943
  O           3.55990133849507     -1.29688648542292      0.00637139141077
  C           4.67739447448793      0.80538854351814     -0.09184213793150
  H          -5.55349614343563      0.79101975071234      0.97827879642300
  H          -6.35319259848448     -0.39759383055764     -0.06204301629873
  H          -5.54895750896681      1.00767649876391     -0.77839931659129
  H          -4.14315675639588     -1.28235751003144      0.72203916328288
  H          -4.14085354871152     -1.07049949683745     -1.02462346510172
  H          -2.97161242025315      1.12848466244952     -0.75906801189138
  H          -2.97636343195793      0.92062855223829      0.98956998209296
  H          -1.59456037060773     -1.15673889550753      0.74972904694292
  H          -1.59402528078905     -0.95696343733002     -1.00017509412073
  H          -0.42210542398318      1.24331065680741     -0.75262880692907
  H          -0.42864391597943      1.05317263578763      0.99828755310120
  H           0.95022856292653     -1.02894950712000      0.78047916233796
  H           0.95511746918342     -0.84756160845059     -0.96981570773974
  H           2.12215600645493      1.39466018580701     -0.71544096603180
  H           2.12667733393309      1.18907058130676      1.01500296184714
  H           4.56907851532985      1.70135866255460      0.52691070869198
  H           4.76930986540587      1.14398856666064     -1.13234275384901
  H           5.58068865358520      0.25465524169777      0.17875707405934
