22
Coordinates from ORCA-job geoopt E -292.325331235326
  C           3.73241749154719      0.29044955220098      0.16769181826191
  C           2.47166546750258     -0.33312923277253     -0.42477193608167
  C           1.21602184579065      0.12594747389442      0.30244890367080
  N          -0.00385137110303     -0.42898888041715     -0.30250815896358
  C          -1.20793927467310      0.12653753056525      0.33291603937512
  C          -2.48177660514454     -0.33285268968724     -0.36179087983588
  C          -3.72691099111945      0.29176952253389      0.26185457493327
  H           3.70433308921183      1.38377987419732      0.09500458900032
  H           3.83985568102358      0.02926228782453      1.22706331373236
  H           4.63027424387631     -0.05622500526162     -0.35425323440235
  H           2.54083705713218     -1.42774245928477     -0.38006475881282
  H           2.39022489700426     -0.06383631798271     -1.48742513750784
  H           1.26013492803374     -0.19882737079676      1.35162685853487
  H           1.19536948864535      1.23306178760207      0.31972927089494
  H          -0.01595372476771     -0.11866315870387     -1.27312398613740
  H          -1.18662092906251      1.23364930980224      0.34889561922597
  H          -1.22533942683316     -0.19757151072029      1.38307347563022
  H          -2.42730102818812     -0.06463145614423     -1.42642967559544
  H          -2.55016762952605     -1.42738550407591     -0.31411411777444
  H          -3.80690033929070      0.03253805357589      1.32412703751642
  H          -3.70085119863143      1.38496415412041      0.18644091097238
  H          -4.63789778672787     -0.05595344656993     -0.23608889313715
