41
Coordinates from ORCA-job geoopt E -2932.499274693968
  C          -1.02408665278241      3.77920867694872      0.00020018337344
  C          -2.03446618339423      2.77641427190031     -0.49197374531690
  O          -1.73328669098384      1.50062383913910      0.17246193156202
  P          -2.56920127491422      0.18202202052898     -0.20747278393949
  S          -4.51293651967395      0.25893449044074     -0.20519261729614
  O          -1.86599720542479     -0.76002420896855      0.88247045467059
  C          -2.21093244159534     -2.18187577061864      0.97066166850893
  C          -1.27685738760724     -2.80189092603093      1.97751325601849
  S          -1.94121442767338     -0.41412505980584     -2.13720419359431
  C          -0.13685199002716     -0.05572852628057     -2.12821544516113
  S           0.90029455107467     -1.30616527567546     -1.24785036230869
  P           1.98820525609422     -0.05855323115451      0.07418068967687
  S           2.63184830427428      1.62576699387937     -0.66397514971419
  O           3.09409614754644     -1.10500315244044      0.60333291786645
  C           4.30240676939892     -1.37674842859088     -0.18988388166162
  C           5.03547926585571     -2.50315439010872      0.48996688996490
  O           1.02657287979369      0.03430031932851      1.35314560275614
  C           1.10428122676578      1.13572374585304      2.32252397783011
  C           2.27593617346920      0.96544886883740      3.25672641627620
  H          -1.22853960163225      4.74615058838003     -0.47077927528374
  H          -1.09123611782738      3.90263203039205      1.08543813185142
  H          -0.00718489932114      3.47272980240362     -0.26472303919987
  H          -1.96603827914770      2.63254450375902     -1.57665664523079
  H          -3.05821818279661      3.06329705661345     -0.23050570359582
  H          -3.25806216293745     -2.26154533356630      1.28176145457348
  H          -2.09245163988533     -2.63412065150490     -0.02083759373318
  H          -0.23667308593074     -2.73016693847151      1.64558065368203
  H          -1.37522561822005     -2.31604823846273      2.95320784826743
  H          -1.53251102784925     -3.86024299711145      2.09156471127217
  H           0.05461851336821      0.93885510955865     -1.71446344922599
  H           0.15232803315111     -0.05665475585274     -3.18302147830311
  H           4.00324384470413     -1.64614571648184     -1.20915335776996
  H           4.89831328218346     -0.45902462602179     -0.22035892165705
  H           5.95295756976688     -2.71576723819267     -0.06811195622653
  H           5.30984061623019     -2.22967459157190      1.51335499710814
  H           4.42650019927137     -3.41183321218096      0.51300299463411
  H           1.14906495007693      2.08018413695756      1.77006921407624
  H           0.14913732996375      1.07773566015941      2.85049143539475
  H           2.23822092596694      1.75276839394370      4.01742131872561
  H           2.23643414916905     -0.00477192933800      3.76144422768700
  H           3.22911737469951      1.05186676510768      2.72492691174196
