20
Coordinates from ORCA-job geoopt E -882.897803061492
  C          -2.57170053707931      0.63588493945629      0.77305854548116
  O          -1.26215342826384      0.15545505104354      1.14015175017811
  C          -0.33866265523682      0.08975422210235      0.07792593569689
  C           0.92358102719480     -0.44807632584393      0.76446322325017
  Cl          2.28472414001765     -0.64181821057888     -0.41631959979710
  O          -0.79421721609881     -0.70348429696846     -0.98703468047239
  C          -1.07182137987165     -2.07619852858564     -0.66055193541867
  O          -0.16040945002657      1.32660996581361     -0.56252615887147
  C           0.30862631487677      2.39602571569922      0.27687644871956
  H          -3.04382992650400     -0.02401632811030      0.03729141801130
  H          -2.52337583582120      1.65587264945756      0.37684324124179
  H          -3.15595366950591      0.63056768196125      1.69484004562171
  H           0.72903443473401     -1.42490314212465      1.20941012689468
  H           1.25566916826236      0.23771063304608      1.54526852472854
  H          -1.62814822797029     -2.47635655111548     -1.51027901761067
  H          -1.68459414294440     -2.15920222392042      0.24358853387921
  H          -0.14615124030509     -2.65100849571628     -0.53805670531232
  H          -0.26726151262451      2.46053904491390      1.20638192643922
  H           0.16409231229377      3.31117730417391     -0.30040066387119
  H           1.37502973917304      2.28411122179632      0.50619720291144
