24
Coordinates from ORCA-job geoopt E -389.390833239921
  C          -2.01561393008817      0.73672522319115     -1.25524687106024
  C          -1.52003208889067     -0.00481099541515      0.00002325133070
  C          -2.01571392423091      0.73705769764218      1.25504575824500
  C          -2.12753146245358     -1.41120443929774      0.00018751173827
  C           0.01034959882382     -0.03035350065095      0.00007205966688
  C           0.72483874031709      1.17755443709480     -0.00005389621338
  C           2.11528422357659      1.19637312241803     -0.00003550395962
  C           2.83499757870782      0.00215232070798      0.00011013150566
  C           2.14316466344990     -1.20364669953940      0.00024297661583
  C           0.74735181722849     -1.21882918066233      0.00022555243243
  H          -1.66148834434095      1.77229925574760     -1.27948181637759
  H          -1.66884610539672      0.23526383770242     -2.16610676491615
  H          -3.11174127652145      0.75486965065683     -1.27053854775377
  H          -1.66150224737642      1.77260898355976      1.27908469745945
  H          -3.11183977975611      0.75530310471782      1.27018868879450
  H          -1.66908383683429      0.23579839450196      2.16606999816766
  H          -1.83483676243003     -1.98119140200188      0.88900786774488
  H          -3.22001357409248     -1.33116304414479      0.00017675617897
  H          -1.83483445209224     -1.98140441644942     -0.88849605771508
  H           0.18883577171705      2.12301093883373     -0.00016668177110
  H           2.63980818757388      2.14836636263536     -0.00013543303127
  H           3.92144449923762      0.01449308919049      0.00012245611898
  H           2.68772573956046     -2.14435172906085      0.00036018451197
  H           0.24005124601133     -2.17773768267761      0.00033232368699
