17
Coordinates from ORCA-job geoopt E -678.439026109194
  C          -0.38605254652730     -1.73368651007172      0.20984030592264
  C          -1.30708514056362     -0.61788000948246      0.65807618796673
  O          -1.72346661621869      0.06141828540536     -0.56941038380075
  N          -2.55972527364823      1.16294529228939     -0.36045188653471
  O          -2.86694719364988      1.44488208546185      0.77425417862841
  O          -2.88226919618615      1.71144286083520     -1.38902715657710
  C           0.89215295305410     -1.27164823054479     -0.45890605416509
  O           1.62761147017695     -0.53743517158972      0.57169831855269
  N           2.83922158441444      0.00705960675097      0.13419037642571
  O           3.17200095177098     -0.17818869879606     -1.01318769347454
  O           3.42229625062220      0.61671601479292      1.00090825802445
  H          -0.15020083205185     -2.33671793267701      1.09388381571184
  H          -0.90590853781305     -2.38927997922911     -0.49764507327145
  H          -2.19356521035552     -1.01744619556528      1.15880381425882
  H          -0.80380118074743      0.10331619439125      1.30845703155041
  H           0.70399151628342     -0.60246778804612     -1.30342028290017
  H           1.49564035213960     -2.12389353012465     -0.78397730321786
