30
Coordinates from ORCA-job geoopt E -430.110617049854
  C           5.79229491177702      0.31165568351043     -0.02015947891447
  C           4.50994362599804     -0.51556675824389      0.01319290683429
  C           3.24961931301005      0.34792101399488     -0.00790144792067
  C           1.95867244492413     -0.46817012866917      0.02023454769272
  C           0.69938597231303      0.39660400846997      0.00241785544019
  C          -0.59104770863682     -0.42074477456200      0.01899403034125
  C          -1.84899343263031      0.44603122175110      0.00545343729222
  C          -3.13745325402400     -0.37604362111075      0.00327072382127
  C          -4.37470648696125      0.50612281563055     -0.00183556598248
  O          -5.59896506111023     -0.25522192642691     -0.01493835114072
  H           5.84713992672307      0.98619751960251      0.84254041714167
  H           6.68333075210083     -0.32543921548922     -0.00300189433375
  H           5.83909688182823      0.92724592082586     -0.92631237466012
  H           4.50086949404290     -1.14555645194393      0.91347554436251
  H           4.49168384877156     -1.20186081519165     -0.84483111310979
  H           3.26632612529637      1.03310953781316      0.85252492100129
  H           3.26021807232667      0.98113910687516     -0.90734336264956
  H           1.95004562238087     -1.10348569260557      0.91805943767860
  H           1.94224779713350     -1.15076148571341     -0.84212327366732
  H           0.71166056575489      1.07406844713360      0.86882465185815
  H           0.71137348051648      1.03703958357549     -0.89170604648522
  H          -0.60310244087027     -1.06435060191219      0.91054688457081
  H          -0.60564666913404     -1.09413200979742     -0.85035000599629
  H          -1.84189915508834      1.11077022854572      0.88131931696299
  H          -1.83119172633686      1.09723620906570     -0.88023683939122
  H          -3.15883254419674     -1.02580934480879     -0.88378128343384
  H          -3.16514618289856     -1.03079934424351      0.88503706753520
  H          -4.41425229456088      1.11600105231686      0.90786105471532
  H          -4.34902852722450      1.19021999041752     -0.86382784605741
  H          -5.60322336862484     -0.77046450491009     -0.83221060750564
