22
Coordinates from ORCA-job geoopt E -3680.235866081072
  C          -1.51421200166786      0.82099969138826      0.76854484155907
  C          -0.80830829645608     -0.14445470229680      0.05168908439246
  C          -1.49715996560321     -1.14033851698461     -0.63746552532964
  C          -2.88479935949412     -1.15902970584524     -0.61869427320438
  C          -3.61112878464569     -0.19587891196981      0.08793482139182
  C          -2.89992418365001      0.78940619417801      0.78317763116607
  Cl         -3.75031915400477      2.00526189881571      1.69882561998289
  Cl         -5.34309628989573     -0.22338272429551      0.10706822669418
  Cl         -3.71219274848196     -2.41277330622348     -1.50304566634186
  C           0.67285171263176     -0.15952672653516      0.05761135605998
  C           1.32259282102657     -1.30154111496937      0.52151833707203
  C           2.70549687248267     -1.36899895087381      0.55735066935788
  C           3.48269349023767     -0.29134329837310      0.12796804284119
  C           2.84271210038440      0.85756953126353     -0.35436721827042
  C           1.44535298977924      0.91801483937893     -0.39124483584959
  Cl          0.66994423789155      2.32517784383399     -1.06256254571894
  Cl          3.79016995298907      2.19401451745276     -0.91714001789009
  Cl          5.21052489266345     -0.37377581235272      0.18536052942150
  Cl          3.45583603340325     -2.81945865543127      1.15947142659304
  H          -0.99071078227214      1.58536110336207      1.33210170320979
  H          -0.95604164333825     -1.89500903124221     -1.19828715605426
  H           0.73359971522018     -2.14144813148019      0.87434599261729
