14
Coordinates from ORCA-job geoopt E -307.644729127188
  C          -2.50476630615030     -0.07294307594042     -0.00680687624542
  C          -1.23428293502189      0.76202177441944      0.00750136568942
  C           0.02041977586552     -0.06414917101266     -0.00503082925581
  O           0.06802494176631     -1.28281953187397     -0.02744375931991
  O           1.12253268922354      0.71168821979530      0.01184008019419
  C           2.39343594809193      0.01289670949270      0.00194191974050
  H          -3.38030209955696      0.58235412094454      0.00426904810142
  H          -2.55833743243565     -0.69747899690403     -0.90353266948938
  H          -2.55834989683234     -0.72756614658378      0.86820028595769
  H          -1.19094416508286      1.40892431997473      0.89282558466063
  H          -1.18958965137409      1.43712056771668     -0.85648037581107
  H           2.48800950690958     -0.58889596707215     -0.90574572793423
  H           2.48265229751973     -0.62396674003928      0.88592579016301
  H           3.15292394727750      0.79443306768290      0.01946353094897
