20
Coordinates from ORCA-job geoopt E -386.250336903139
  C           3.63850723498544     -0.72171861587823      0.12558994052580
  C           2.18373655380582     -0.40140646477379      0.45603108707900
  C           1.59805264263460      0.64770463985253     -0.48825978999255
  C           0.17643644954177      1.04232029558136     -0.16131026054380
  O          -0.66810494839584     -0.13636336615043     -0.35701171005712
  C          -1.97748285072310      0.00956665414860     -0.09936668215489
  O          -2.47403161392310      1.06645851326175      0.26145486224085
  C          -2.73004901251956     -1.27027988624547     -0.27396385539888
  H           3.73294231653645     -1.10904172516094     -0.89567803713200
  H           4.26566814029418      0.17430177368806      0.20140731135051
  H           4.04623100345525     -1.47527899791819      0.80766720560591
  H           1.58547441062729     -1.31962666885860      0.40431430116885
  H           2.10798132732523     -0.03483107532332      1.48885170916916
  H           2.20088916019768      1.56451098465879     -0.43836584653028
  H           1.64848625613641      0.29447303786323     -1.52707412457365
  H           0.07551267901872      1.36943121086036      0.88000038565768
  H          -0.18612299280688      1.83763999384715     -0.82090169616627
  H          -3.78017467464099     -1.05762428383778     -0.47869664752566
  H          -2.66608990955913     -1.83395146024696      0.66452526979556
  H          -2.29788841219026     -1.88441146806809     -1.06652424081821
