32
Coordinates from ORCA-job geoopt E -394.190462211719
  C          -5.74048619998837      0.29701171513115      0.00011450062971
  C          -4.45422024544445     -0.52494401292382      0.00028182489899
  C          -3.19792141701714      0.34472778479368      0.00001670760346
  C          -1.90293372519135     -0.46555463532792     -0.00019281839717
  C          -0.64760099519836      0.40519354618372      0.00003904743488
  C           0.64759334675082     -0.40513142729435     -0.00038108090355
  C           1.90294294656283      0.46559263035297     -0.00002384492617
  C           3.19789987911053     -0.34474108495258     -0.00010233443902
  C           4.45424471746128      0.52486457523172      0.00002533085758
  C           5.74045844518648     -0.29717468350210      0.00042797304413
  H          -6.62854693286343     -0.34447851733483      0.00058485580588
  H          -5.79424067585865      0.94175412380266     -0.88516112086804
  H          -5.79391893007308      0.94260663883336      0.88478983412591
  H          -4.43745006385032     -1.18357206704257     -0.87920891255678
  H          -4.43738319231033     -1.18312089269497      0.88010683654788
  H          -3.21455928771353      1.00417726504624      0.88037204458190
  H          -3.21487827234148      1.00411914838976     -0.88037559016201
  H          -1.88731806211838     -1.12453902674352     -0.88078377372437
  H          -1.88730982235953     -1.12499159558631      0.88006089905989
  H          -0.66310412459810      1.06408072766961      0.88071219729928
  H          -0.66324781750439      1.06478695265670     -0.88010439020831
  H           0.66313015032482     -1.06396966054531     -0.88108961802387
  H           0.66319287259066     -1.06476890287429      0.87973091689293
  H           1.88743307999732      1.12504587197346     -0.88026638614921
  H           1.88725755226187      1.12456191211815      0.88057721794028
  H           3.21464510780042     -1.00426676681873      0.88019381151375
  H           3.21468680627165     -1.00405939868250     -0.88055252493518
  H           4.43766776621774      1.18312521962360     -0.87974168939656
  H           4.43729777665159      1.18340434996248      0.87957811760382
  H           6.62856271517169      0.34425588499688      0.00043032206763
  H           5.79385836910004     -0.94214519711296      0.88555887990808
  H           5.79416301327117     -0.94254619432937     -0.88439369872576
