28
Coordinates from ORCA-job geoopt E -370.925425073757
  C          -5.00426694666800      0.13124715815024      0.43324175583456
  C          -3.74293484008703     -0.28925273065683     -0.31605909665827
  C          -2.47158508775328      0.27856669288768      0.31312213358106
  C          -1.21709178921428     -0.12116686270945     -0.44956274112548
  N           0.00368751333233      0.37311049040547      0.20541400495242
  C           1.20740197826587     -0.13331441491621     -0.47154588616378
  C           2.47950305702846      0.25358834756919      0.26827014461694
  C           3.73359054816737     -0.32589595816150     -0.38449062871709
  C           5.01235619802024      0.08208657579741      0.34184549457301
  H          -4.97311442871917     -0.20766967318842      1.47550137344115
  H          -5.11140648450933      1.22229285788934      0.44145338501260
  H          -5.90417941766887     -0.28957656404110     -0.02821209900065
  H          -3.67737344058542     -1.38551341081767     -0.34035777501621
  H          -3.80808438336943      0.04124611884060     -1.36196618504586
  H          -2.54299153794299      1.37419118213808      0.35683943781719
  H          -2.39195433251568     -0.07532406555791      1.35198557561756
  H          -1.25549871065931      0.29506192477514     -1.46601327667528
  H          -1.19953088149820     -1.22242265554524     -0.56376975090781
  H           0.01020428372934     -0.02056719870061      1.14533054731663
  H           1.17671241667401     -1.23431409725025     -0.58543758633327
  H           1.23163334742070      0.28273623719695     -1.48850768525620
  H           2.41563926171879     -0.10035580521945      1.30819696573190
  H           2.56243592782230      1.34843247182156      0.31137412449406
  H           3.78267247013657      0.00475661882376     -1.43121954540462
  H           3.65718417073036     -1.42146496666178     -0.40816876664216
  H           5.89966642879309     -0.34703714979501     -0.13606916404308
  H           5.13006179031668      1.17205618611229      0.34855855536965
  H           4.99693799573488     -0.25710589858628      1.38436412513102
