39
Coordinates from ORCA-job geoopt E -1269.351464347747
  C          -5.76587564793666     -0.92979712106009      2.09550530822484
  C          -4.60375619141903     -1.44051974095575      1.24891915901610
  C          -3.74661785831866     -0.29976956139353      0.70109805945423
  C          -2.60636385980083     -0.85046406026300     -0.15644821956816
  N          -1.69336032845969      0.21297964947494     -0.59886003323491
  C          -2.28318720208510      1.34761112001571     -1.32759163646681
  C          -3.09742760512351      0.87607619278877     -2.52749343386979
  C          -0.36566584460243      0.15476152601808     -0.33663569674267
  C           0.41658480045267      1.29635853045155      0.00578964881108
  C           1.78311474138872      1.25195000426863      0.22630904318869
  C           2.44577304595720      0.03223578954196      0.19726350142000
  C           1.73724577602557     -1.12907115599847     -0.08201270318568
  C           0.38771908239129     -1.05533725708248     -0.38012405805365
  N          -0.16980384744867     -2.27975738975663     -0.95596712566019
  O           0.16527185529103     -3.35187674149977     -0.45519684457341
  O          -0.88870716461027     -2.18188443642995     -1.94712556453107
  C           3.90655536976113     -0.03888873135515      0.51460279673982
  F           4.55329944091353      1.10194970512492      0.18544871568673
  F           4.13248767498527     -0.24163914352852      1.84204801073831
  F           4.52040245497785     -1.05317331726057     -0.13644274599050
  N          -0.21000194599121      2.57085219249284      0.35600306826055
  O          -1.25385359899262      2.54738077780406      1.00343651173142
  O           0.37823687501353      3.60452187612861      0.04176551914423
  H          -6.42607657709237     -0.28245728744199      1.50680467260624
  H          -6.36797267664026     -1.75771594569397      2.48463846871419
  H          -5.40298427160856     -0.34783238190315      2.95060040869102
  H          -3.97470058516855     -2.11192197098549      1.84874217873376
  H          -4.98989690167649     -2.03746814813313      0.41158633394035
  H          -4.38013746867941      0.37508853912015      0.11282518515404
  H          -3.32758418624331      0.28596391533424      1.52999184524458
  H          -3.00990219766932     -1.40474638866628     -1.01393277491810
  H          -2.03647219476263     -1.55525962454090      0.45775261039107
  H          -2.90288629002819      1.96144911810397     -0.66211336205288
  H          -1.46553382066984      1.97612582197669     -1.69411444351618
  H          -2.49307810296094      0.25301321209296     -3.19434802029101
  H          -3.98830909770890      0.31489332952078     -2.23210841658810
  H          -3.42877825634214      1.75852753706777     -3.08383669708791
  H           2.30424399177077      2.16568308036292      0.49143829989103
  H           2.24020823531105     -2.08791579544070     -0.14843679655125
