24
Coordinates from ORCA-job geoopt E -534.820161396475
  C          -3.80787651304042      0.58241684311002      0.40539516273444
  N          -2.69366813778355     -0.13243672262118     -0.22450270220030
  C          -2.93368646193579     -1.55839426405525     -0.46746856073159
  C          -1.43290605688878      0.34076844438833      0.04165724886773
  O          -1.23364775170351      1.49574295077562      0.45715688329034
  N          -0.39731059366598     -0.53652507012969     -0.21922483822009
  C           0.97292001146065     -0.24637647998657     -0.08976567989461
  C           1.51578388710334      1.00522017389783     -0.40248108416700
  C           2.88838678803356      1.20650612917550     -0.29156205369271
  C           3.73541927640132      0.17618280068991      0.11053718739635
  C           3.19345315163420     -1.07473098212451      0.39922393403673
  C           1.82315646166606     -1.28640671632895      0.30637422386582
  H          -4.72984380287732      0.32299345056424     -0.12029000936684
  H          -3.65809592888732      1.65954391575823      0.33097956367460
  H          -3.91731051537128      0.31055698002854      1.46502711358668
  H          -2.33817602384200     -1.92413685511645     -1.30936670811927
  H          -3.98317741131275     -1.68798980464195     -0.73857316117242
  H          -2.73137611345528     -2.17237998318578      0.42251172819814
  H          -0.61667486196810     -1.52175574189481     -0.25814460584779
  H           0.87407832817465      1.80831879346571     -0.74316182138763
  H           3.29859494688261      2.18256721836827     -0.53629600592021
  H           4.80541848118308      0.34354311582266      0.18993106272946
  H           3.83855368440408     -1.89289299809198      0.70723685318664
  H           1.40144618618852     -2.26133305506772      0.54002726485351
