18
Coordinates from ORCA-job geoopt E -272.898679241057
  C          -1.51056525288271     -1.05245594296046      0.01158367759854
  C          -0.42187876314890      0.01382754941775      0.00002320681769
  C          -0.51701147737610      0.88322534461177      1.25245549955789
  C          -0.52755222732708      0.86645193378398     -1.26313616348265
  O           0.81534963969914     -0.75799781594052     -0.00065867934713
  C           2.02928775509681     -0.00714272049867     -0.00074469361693
  H          -2.49912037125692     -0.58366704291110      0.01155899380561
  H          -1.43175073157532     -1.69295171288328     -0.87352494499799
  H          -1.42554342820689     -1.67995799157299      0.90537664433990
  H          -0.36437219593565      0.27947155155931      2.15399869522221
  H          -1.51167955394550      1.33732479764719      1.30815352069423
  H           0.21616138640919      1.69568442415709      1.24337817582086
  H          -0.38454308364071      0.25004872017464     -2.15765728634079
  H          -1.52186404234066      1.32172780788228     -1.31570457102600
  H           0.20715294306131      1.67749452015503     -1.27221658920114
  H           2.84185378562831     -0.73920524928094     -0.00960967939251
  H           2.13438618371207      0.61526521229657      0.89764580523542
  H           2.12673382462959      0.62837347736233     -0.89076488938719
