15
Coordinates from ORCA-job geoopt E -233.609928045239
  C           2.57339872723038     -0.31297177730245     -0.00893616308726
  C           1.29467062024301      0.51950893476900      0.02087515222418
  C           0.03474721883353     -0.34503693906966     -0.02007907515329
  C          -1.23297979874798      0.49226910712854      0.00016239931714
  O          -2.42917486995970     -0.31204032665349     -0.02999003092384
  H           2.62793608669017     -0.91700335525976     -0.92206900766781
  H           3.46489592593931      0.32242189355246      0.02589601779657
  H           2.61615749668078     -0.99736475015326      0.84637425257497
  H           1.27950122187929      1.13941824838218      0.92750110787563
  H           1.28603831215483      1.21311696023731     -0.83097175867955
  H           0.04068742479948     -0.96949139659381     -0.92408851450609
  H           0.02763549364102     -1.02598213878497      0.84365437584208
  H          -1.24223696715625      1.14553684062780      0.88608053640622
  H          -1.28344247406914      1.13260505129051     -0.88782187119432
  H          -2.42507390175874     -0.85593628147039      0.76849529427537
