24
Coordinates from ORCA-job geoopt E -2331.574442388246
  C          -3.59619725593044      1.49559597753649     -0.09387346735134
  C          -4.72539525216032      0.60695431246254     -0.56021404454814
  C          -4.63501452679130     -0.71800567385491     -0.72660403824838
  C          -3.41482592983049     -1.54582477670482     -0.39802520940093
  C          -2.48311340091153     -0.69099125860332      0.43744850483232
  H          -2.92506360188091     -0.55533134080687      1.44021848088488
  C          -2.31042236692995      0.69900668116905     -0.17821124731581
  H          -2.03969447997707      0.55931316318150     -1.23958352252958
  C          -1.05284566515859      1.21103119029344      0.45742189236549
  O          -0.68452468649695      2.34556612018562      0.65028115563044
  N          -0.29591523436004      0.04474887936233      0.79165763738592
  C          -1.07983397261179     -1.14509074482559      0.71659164262625
  O          -0.65595899186450     -2.25970073115440      0.91446362813874
  S           1.30738800250568      0.08761942580696      1.37416218246470
  C           2.26230144157742     -0.00945453853818     -0.19326733103934
  Cl          3.96039691782250      0.05369409033087      0.38730499132772
  Cl          1.97549450508409     -1.52910139499357     -1.09897544935130
  Cl          1.93401219803478      1.36743780526663     -1.29507000390942
  H          -3.77413798854377      1.83901889844869      0.93521830640900
  H          -3.54644395075482      2.39261866019162     -0.72129775516582
  H          -5.66539953568663      1.10393356484209     -0.79294382466316
  H          -5.49918914047494     -1.26163534111153     -1.10401685505212
  H          -3.71410904529652     -2.44904066821520      0.14544923958846
  H          -2.91481017126391     -1.88051898436947     -1.31815358677858
