23
Coordinates from ORCA-job geoopt E -425.545013449898
  C          -4.68625882551390     -0.05794269400832      0.08793011154306
  C          -3.32389461514756      0.45446167672031      0.54688757777815
  C          -2.16612069555280     -0.21106648047002     -0.19475744807697
  C          -0.80052465227356      0.30303233550439      0.25577878794488
  C           0.33679848778374     -0.37608359961646     -0.49596362513424
  C           1.70002197295673      0.10596641439695     -0.09182545269636
  O           1.93044807454339      0.99578902820254      0.71034752843288
  O           2.67387893085680     -0.56843853870386     -0.73535904738442
  C           4.03406124572618     -0.16990781361742     -0.42792217222291
  H          -4.83711129260687      0.13103527358415     -0.98149109833290
  H          -4.77469737631866     -1.13862721309775      0.25048598340807
  H          -5.50275285894104      0.42956287841970      0.63161513176953
  H          -3.20855161416476      0.28138809468602      1.62572224691117
  H          -3.26962790942528      1.54184253969796      0.39918817748855
  H          -2.21543554880051     -1.29918231014911     -0.04375562337267
  H          -2.28129931462401     -0.04130756619336     -1.27514610175965
  H          -0.74613798267028      1.38789350627599      0.09923991648831
  H          -0.67920230735640      0.13258368977671      1.33334858852043
  H           0.31137569688307     -1.46444775399157     -0.35369862167626
  H           0.24256134704972     -0.21541483809282     -1.57880598421252
  H           4.24286625558163     -0.32193248743822      0.63426890461496
  H           4.19172597005471      0.87821849349341     -0.69537780175154
  H           4.66842076485965     -0.81563050667922     -1.03488066017955
