23
Coordinates from ORCA-job geoopt E -276.292905148292
  C          -1.61974500481360      1.07187002572774     -0.82945143570932
  C          -1.27127800128393      0.10159260678584      0.29984469869678
  C          -2.43806235017763     -0.85328572226510      0.56054256270272
  C           0.00031258357571     -0.70238293475216     -0.00359042502603
  C           1.27106904411787      0.10603272532199     -0.29871803093530
  C           1.61866011384999      1.06483121788033      0.84057684059295
  C           2.43883723217743     -0.84492452114014     -0.56930501495852
  H          -2.56465096254145      1.58789210021423     -0.62287872039332
  H          -0.84824703746512      1.83656643641891     -0.96847243271491
  H          -1.73301789182204      0.53227983718631     -1.77909913724659
  H          -1.10462507414139      0.68576579706119      1.21670315006343
  H          -2.20892015211857     -1.54901611097626      1.37626545743511
  H          -3.34810461703102     -0.30478625397999      0.82973656170688
  H          -2.65782263054151     -1.44785807798744     -0.33571259018786
  H          -0.20578406409682     -1.35786984224539     -0.86419112315043
  H           0.20727227967592     -1.36633495367615      0.85030085049687
  H           1.10392038633601      0.69939979283971     -1.20956370501825
  H           1.73291763067216      0.51541282169658      1.78445208533109
  H           2.56287891341098      1.58413962832002      0.63915442416377
  H           0.84632014491167      1.82712325632057      0.98788876530236
  H           2.65920873943595     -1.44857076800468      0.32071847141381
  H           2.21046155198938     -1.53235224176994     -1.39224630398415
  H           3.34833126727999     -0.29270862097618     -0.83270268008109
