14
Coordinates from ORCA-job geoopt E -158.389794054093
  C           1.94911907431174      0.13178416944612     -0.00000652923480
  C           0.56586563287931     -0.51338993572460      0.00002004603614
  C          -0.56586210781854      0.51340036137527      0.00004343576476
  C          -1.94911556561580     -0.13177289685619     -0.00000294024802
  H           2.74481194475381     -0.62118862179065      0.00004609555247
  H           2.08735037539503      0.76403014836190     -0.88514201949010
  H           2.08733358957632      0.76413625539552      0.88505593204138
  H           0.46120193596339     -1.16367955176270     -0.87974136934056
  H           0.46123863344160     -1.16369763248778      0.87977233955181
  H          -0.46122806637867      1.16365444511387      0.87983477564951
  H          -0.46119289688753      1.16374186754407     -0.87967870228816
  H          -2.08730319019861     -0.76408932579331     -0.88509490628517
  H          -2.74480774972636      0.62120078490096     -0.00004846412927
  H          -2.08737563429568     -0.76405220052249      0.88510416482000
