27
Coordinates from ORCA-job geoopt E -465.803077596880
  C          -3.41156974683887      0.51332956971598     -0.05109952549470
  C          -1.93156531713027      0.48902503842740      0.29776654548967
  H          -1.78694738973217      0.80738296389537      1.34311653309608
  C          -1.10418085845639      1.45332736083362     -0.58246900891328
  C           0.38071659255864      1.42190631075837     -0.23356194963461
  C           0.94782911162351      0.00627794412401     -0.39528944543572
  H           0.78464524535384     -0.30845068579155     -1.43593003729188
  C           0.15326668564685     -0.97163436855235      0.50992163959770
  C          -1.31893687405484     -0.88935874840386      0.20855013427130
  O          -1.96695173198945     -1.88146017741685     -0.11598462510952
  C           2.43244628370047     -0.08570827485561     -0.11810539924008
  C           3.25830891618697     -0.62595198540645     -1.01942093792143
  C           2.93357743189303      0.44872816276718      1.19300271976254
  H          -3.57450183746694      0.19839402410221     -1.08760641874566
  H          -3.98936920256722     -0.15059505429680      0.59903061120757
  H          -3.80486631314950      1.52872262873500      0.06140639015655
  H          -1.24581835940306      1.17470321084156     -1.63634299165871
  H          -1.50683264999435      2.46523282945844     -0.45881520894596
  H           0.93316380295633      2.11534139169932     -0.87949016827837
  H           0.51781099558464      1.75928692083817      0.80242069725301
  H           0.49732958744988     -2.00157858646964      0.37565615122306
  H           0.29581597499254     -0.68321516493887      1.56059439749949
  H           4.32639290718039     -0.70791990150845     -0.83044991016729
  H           2.88746172539863     -1.00128977781511     -1.97080980240996
  H           2.38358126773275      0.02134422437392      2.04006662620963
  H           3.99630068197439      0.22861938437212      1.32540631003735
  H           2.80022221105022      1.53590786461286      1.24986710504322
