12
Coordinates from ORCA-job geoopt E -1150.128300988272
  C          -0.18341549034850     -0.42239067983819     -0.28667870969254
  H           0.02837853750746     -1.49632077991629     -0.34547486674150
  C          -1.53917481516156     -0.20691072819609      0.40095696419835
  F          -1.85472356247600      1.09527926988823      0.50276242781913
  F          -1.49443781808409     -0.72165143219481      1.64462317814900
  F          -2.52034981709546     -0.82940233190205     -0.27050947589772
  O           0.75602721054443      0.27993520451378      0.46447280217467
  C           2.06634714518988     -0.19496080672762      0.40003572376323
  F           2.65921236547816      0.20950843625763      1.54371661991488
  F           2.72295827197212      0.41568204754955     -0.62662456776160
  Cl         -0.29556397371601      0.19805638933350     -2.00020324336773
  H           2.13697261168957     -1.28302758486764      0.28685415764182
