19
Coordinates from ORCA-job geoopt E -1454.413706916844
  C           1.43119683783183     -2.51419043203939     -0.62892384867908
  O           1.00604176880128     -1.71710585451059      0.51032113058102
  C           0.69651369711576     -0.42046277200879      0.19318717553659
  C           1.66534146217742      0.58193187506972      0.10052565747457
  C           1.30420662433367      1.89486806856947     -0.17472534537074
  C          -0.03238966022708      2.22838694175173     -0.35609187839923
  C          -0.99618374549970      1.23546183287449     -0.25149597476717
  C          -0.64641232467016     -0.08319379053936      0.01780869930594
  C          -1.66977043749173     -1.17460303159934      0.10102134538566
  O          -2.02114512983868     -1.83638605345375     -0.85418037740418
  O          -2.14206325123426     -1.32356190982770      1.34393091262443
  Cl         -2.68900426091289      1.64088055425575     -0.46554118916395
  Cl          3.34457143348154      0.18333268176884      0.37063900400487
  H           2.31839559688658     -2.07861710185714     -1.09906610102244
  H           0.61747337054659     -2.58794336068331     -1.35814130371810
  H           1.66896354896408     -3.50103644608194     -0.22953790391410
  H           2.06495249803387      2.66546675644270     -0.24197091390865
  H          -0.31436557222747      3.25385551042502     -0.56669107522928
  H          -2.80742220867067     -2.03732387725642      1.34663253176386
