16
Coordinates from ORCA-job geoopt E -400.853147128454
  C           2.49913819505548     -1.18746611923953      0.00855591847608
  C           1.72043363920421      0.08984165090157      0.00161926990152
  O           2.27896350460996      1.18313580758643     -0.00395482983495
  C           0.22271999944471      0.02019711141686      0.00096328121883
  C          -0.46808336582346     -1.19252100852529     -0.00338578939247
  C          -1.85753746364852     -1.17039531627620     -0.00431731742703
  N          -2.58323615024564     -0.04403905114582     -0.00071878812930
  C          -1.90805308287123      1.11667249474691      0.00366492911070
  C          -0.52442863933069      1.19979689680026      0.00441868385498
  H           2.24650865956453     -1.78858704785279     -0.87277299942051
  H           2.23681399148676     -1.78650587150863      0.88832863787457
  H           3.56789931148930     -0.96995671005994      0.01358649262940
  H           0.04885864312126     -2.14612879029511     -0.00640283833919
  H          -2.41371214508267     -2.10561029301840     -0.00796872975244
  H          -2.50748398272912      2.02476743086151      0.00670720874403
  H          -0.03232524794489      2.16672595280819      0.00804490718578
