11
Coordinates from ORCA-job geoopt E -268.344189684965
  C          -1.75609602380214     -0.66486382148045      0.00038523463677
  C          -0.46439026061510      0.08649810419699     -0.00562347429017
  O          -0.37341969602335      1.30417669541762     -0.01873047617688
  O           0.60772065900853     -0.72754608012619      0.00613823172856
  C           1.90288238384118     -0.07240039499318      0.00285850855927
  H          -2.32889504831160     -0.36548765314235      0.88367894167120
  H          -1.60789147280328     -1.74491054819773      0.00417344446680
  H          -2.33464362356929     -0.37146820112341     -0.88100089036910
  H           2.63449439483189     -0.88003997652035      0.01508710770673
  H           2.01154190621056      0.55413524200428      0.89186424900578
  H           2.01781524803260      0.53254441906477     -0.90021499443897
