21
Coordinates from ORCA-job geoopt E -515.546414360898
  C          -1.96375214251490      0.47864122921832     -1.73115068240905
  O          -0.66575836819029      0.86385578442059     -1.23164261380527
  C          -0.18423326203310      0.06738647761425     -0.18241466599480
  C           1.19377700023235      0.68126790847936      0.15820207904788
  C           1.82709300622580     -0.03794721052521      1.24000412488314
  N           2.32360259379155     -0.62351075449965      2.10633267150322
  O          -1.05072286458930      0.02646665926788      0.92202765114932
  C          -1.35748509986968      1.30075025203333      1.51821401273979
  O          -0.10601985803075     -1.29505541184627     -0.51397234332818
  C           0.72785115156970     -1.61268425580849     -1.64401668588114
  H          -1.94581396257413     -0.53788140981905     -2.13820681589446
  H          -2.19186917284044      1.18698973086421     -2.52922421011087
  H          -2.72683523573478      0.55064543736148     -0.94892019127371
  H           1.84193497116977      0.65374279351484     -0.72339751646500
  H           1.07564853284032      1.73177298580414      0.44216782562781
  H          -1.62652657653586      2.04433956957622      0.76073099642160
  H          -0.51853289650213      1.66752540680030      2.12166465473247
  H          -2.21415752498552      1.12346731068264      2.17080085081659
  H           0.52192463508375     -0.95307834096047     -2.49352160589587
  H           0.47872290336415     -2.63990734217474     -1.91594655209374
  H           1.79066958772349     -1.56107736660367     -1.37898676796973
