17
Coordinates from ORCA-job geoopt E -421.923296115793
  C          -2.80959142525422      1.05935731761772     -0.00002496159230
  O          -2.22559823709581     -0.25207196496639     -0.00000051519993
  C          -0.85811652752651     -0.33557168372471     -0.00000569261731
  C          -0.33027634505974     -1.63320326837861     -0.00000125953240
  C           1.04666074836054     -1.80089235729882     -0.00000478288537
  C           1.91150385710346     -0.70657931908621     -0.00001308456966
  C           1.36302874615030      0.57316469804653     -0.00001747915729
  C          -0.01870516880035      0.77716632964833     -0.00001382373732
  O           2.14826341609030      1.70369672914499     -0.00002577478475
  H          -2.52143868339962      1.61890850822959     -0.89775187935146
  H          -2.52145103774525      1.61893690330553      0.89768828265306
  H          -3.88916560609480      0.90139690419737     -0.00002959906043
  H          -1.00399340480495     -2.48417744205493      0.00000444034840
  H           1.46091803823651     -2.80527193096642     -0.00000175303749
  H           2.98956600524190     -0.84170804852128     -0.00001616044670
  H          -0.39931063990641      1.79180769302582     -0.00001691532352
  H           3.07863821790465      1.43831837568149     -0.00002720140555
