18
Coordinates from ORCA-job geoopt E -272.915894054625
  C          -2.55309163367299     -0.09373642885032     -0.27923501943407
  C          -1.26525307423421     -0.68969058631891      0.28122982498637
  C           0.00001987032481     -0.01000209565319     -0.23514193707630
  C           1.26532030683113     -0.68954582259600      0.28135648983553
  C           2.55312543077420     -0.09369943136565     -0.27929739907380
  O          -0.00006584221010      1.40026959537306      0.09145923021614
  H          -2.56004599048967     -0.13759916032351     -1.37479410830737
  H          -3.42850495802374     -0.64295277844868      0.08311596645015
  H          -2.67249995974280      0.95361895660021      0.01596285420482
  H          -1.26687261431477     -0.63326005175913      1.37981812029702
  H          -1.20654786844207     -1.75464299406212      0.02134883998489
  H           0.00007879351947     -0.03349257741915     -1.33459559368878
  H           1.26696523856978     -0.63284352783832      1.37992998503656
  H           1.20662969386640     -1.75456012566874      0.02172413093587
  H           3.42859340108215     -0.64253889047840      0.08349217740161
  H           2.56022630372335     -0.13821318634071     -1.37482835774762
  H           2.67230194638790      0.95385497200833      0.01529183579831
  H          -0.00011650674885      1.46350677024124      1.05728258408066
