14
Coordinates from ORCA-job geoopt E -270.488291752160
  C           2.02487711854450      0.76002834425583      0.00073521781108
  C           0.78224748927669     -0.07680188649577     -0.00063467895760
  O           0.82954615117962     -1.30914140876663     -0.00401019876288
  C          -0.50209977265042      0.65192078174024      0.00246482497588
  C          -1.67320970798430      0.02421968508073     -0.74135238910681
  C          -1.67376212625563      0.01821646874002      0.73996244757284
  H           2.02094616234675      1.42065640031985     -0.87477613354324
  H           2.02361914858573      1.41321029949251      0.88185846673165
  H           2.92114868640528      0.13727428091563     -0.00312483495970
  H          -0.44023354044666      1.73549980894505      0.00666594509529
  H          -2.33013711506497      0.71571164794574     -1.25875409553180
  H          -1.46004881892467     -0.90979971658326     -1.25263300483501
  H          -2.33117461723360      0.70547805471539      1.26235848575907
  H          -1.46116745007830     -0.91998382060534      1.24377357985123
