12
Coordinates from ORCA-job geoopt E -194.309889932834
  C          -1.58901374424469     -0.16186265205121      0.50451431347297
  C          -0.66761190016069      0.49291915358891     -0.52068678105735
  C           0.67880461484567     -0.20014799971596     -0.65500318775446
  O           1.44194574256778     -0.18772251049617      0.56905306067105
  H          -1.15605437174784     -0.12882615513264      1.50970161159293
  H          -2.55826137990705      0.34600548731252      0.54394994437292
  H          -1.77002112935857     -1.21310770107416      0.25085544814154
  H          -0.50058778115204      1.54842922163240     -0.26311132834472
  H          -1.14277368525316      0.48504076940412     -1.51096574083612
  H           0.53977972403584     -1.25898879075504     -0.90318073324255
  H           1.26388518250072      0.26289219275438     -1.46322134841078
  H           1.58770075587403      0.73870784863283      0.80219986499456
