18
Coordinates from ORCA-job geoopt E -235.761579154983
  C           3.04406704782391      0.32488641299497      0.21033486785251
  C           1.80468708412256     -0.33518700652072     -0.38724983438317
  C           0.51365407228826      0.12545373272666      0.28654714422579
  C          -0.73562508147879     -0.53581691617726     -0.31183790965649
  C          -1.99054170329694     -0.11905291479935      0.38879717999583
  C          -3.01578000683331      0.50982372190836     -0.18432213264903
  H           3.13541886653656      0.09456589231551      1.27835641566798
  H           2.99676874124097      1.41544261463845      0.10790834002322
  H           3.95917974150970     -0.01771580593910     -0.28481853160464
  H           1.74997118865795     -0.11410258236461     -1.46207881169594
  H           1.88719455686429     -1.42715844176950     -0.29825252590171
  H           0.56283173292777     -0.09821650818202      1.36178645032424
  H           0.42180664564967      1.21702521576620      0.19746009363810
  H          -0.80862376651049     -0.29782577844544     -1.38104145460677
  H          -0.62173742457777     -1.62717460995945     -0.22865090195534
  H          -2.03723009846030     -0.34730654243615      1.45596680079126
  H          -3.89688026043488      0.79446892295837      0.38554045136789
  H          -3.00591928162917      0.75840513208506     -1.24454242253373
