18
Coordinates from ORCA-job geoopt E -272.916209864541
  C           2.82589348297135      0.22588170702307     -0.17022906033361
  C           1.48907905213506     -0.33252934319643      0.31060012035238
  C           0.30813238748202      0.51910749964972     -0.15081449346738
  C          -1.04876492531408      0.03176698301810      0.34680110414775
  H          -1.02383731363795     -0.04934156090803      1.44178057152224
  C          -2.17782296222615      0.96164639440742     -0.06948364922457
  O          -1.31628235492119     -1.31806862681576     -0.10574169999690
  H           3.66330746776523     -0.39671754924517      0.16301577600470
  H           2.99000898222173      1.24054928007978      0.21135469193983
  H           2.86007819603782      0.27310616670399     -1.26515902397578
  H           1.36921016409529     -1.35927584227069     -0.05636872281666
  H           1.48448678757857     -0.38955248716571      1.40793350836451
  H           0.44697726228548      1.55214126417352      0.19751387946459
  H           0.28295471523085      0.55996004709723     -1.25097152986679
  H          -3.14092839458506      0.59334570334231      0.29849906510002
  H          -2.01782724962899      1.96771620654389      0.33323377180340
  H          -2.22771678156359      1.03551456264208     -1.16300995104597
  H          -1.31780315112641     -1.29307830827934     -1.07299091617175
