21
Coordinates from ORCA-job geoopt E -648.616571627614
  C          -3.24946062663270      1.25941934705371      0.11274225915331
  C          -1.90380672322233      0.89900516113261     -0.40704228571604
  O          -1.65290028893009      0.40065602896312     -1.48252821890909
  O          -0.92793624300329      1.20492518043229      0.51062014442833
  C           0.38499518304591      0.81750544488466      0.23245221965571
  C           1.30569840958905      1.83891344024386      0.06970798344768
  C           2.64306891269977      1.52913152983765     -0.15328772536073
  C           3.04911074425385      0.19955202942478     -0.22675312671900
  C           2.11811768695507     -0.81799843242710     -0.07534483196863
  C           0.76721770603579     -0.53074728317407      0.16575130130244
  C          -0.20196354939842     -1.62841102442874      0.38472821221839
  O          -1.27295224977667     -1.51711923428527      0.96078805315995
  O           0.22898820574283     -2.80523286944351     -0.11298582089489
  H          -3.97356438995380      1.25894387557342     -0.70184549453449
  H          -3.22710013453642      2.23022477222672      0.61368046661948
  H          -3.53960192225289      0.50763480271441      0.85647769436188
  H           0.96452762698441      2.86798664049068      0.11938157833485
  H           3.36544962504676      2.33086853305980     -0.27345446831162
  H           4.09186534190946     -0.04587661702009     -0.40055631916056
  H           2.43719847424876     -1.85293426077017     -0.12479885190445
  H          -0.43562941820507     -3.48253635038876      0.10310180209746
