24
Coordinates from ORCA-job geoopt E -314.361851448460
  C           4.07360004181005      0.30978809051405     -0.15099560299993
  C           2.63486983241159      0.66906516827895      0.21057829119962
  C           1.64481736971828     -0.44292907383955     -0.13269366798022
  C           0.20168729548246     -0.09586612286196      0.22721206827222
  C          -0.78387715145690     -1.20727014443272     -0.12664093918899
  C          -2.23137603445497     -0.89090821403383      0.28355448341704
  C          -2.79581810604079      0.28617067445841     -0.44924603581310
  C          -3.26945525372839      1.39266008229242      0.12162473296843
  H           4.17055767219152      0.11002600104602     -1.22476476671952
  H           4.76672076244995      1.11955869386989      0.10199136799001
  H           4.40046861408207     -0.58931658077649      0.38476492501911
  H           2.56916748502143      0.89189042711678      1.28461574798599
  H           2.34119913050744      1.58841822274082     -0.31478811989514
  H           1.93988703707108     -1.36447281693642      0.39054969933699
  H           1.70815366616483     -0.66443279661568     -1.20836092263364
  H           0.13430744575142      0.11701676497655      1.30460624194806
  H          -0.08790799167670      0.83052362291119     -0.28877558555313
  H          -0.47481790351266     -2.13823971752018      0.36696414470724
  H          -0.74845699373860     -1.39882480186174     -1.20859802052450
  H          -2.85231747165127     -1.77244652396823      0.06816469207551
  H          -2.28243381741226     -0.71382968191083      1.36597209675458
  H          -2.79892182840339      0.20795971895854     -1.53912821110591
  H          -3.66582612521208      2.21264297432070     -0.47223819501998
  H          -3.27657026237413      1.51165585807333      1.20410929945927
