17
Coordinates from ORCA-job geoopt E -421.920059952486
  C          -2.77162280737720     -0.78398523021426     -0.00007903736366
  O          -1.78949582637918      0.26304858475404     -0.00011690491334
  C          -0.47079922177680     -0.11093167458239     -0.00011075935038
  C           0.00036556228983     -1.41979867516116     -0.00011581741655
  C           1.37753393125396     -1.66015503973013     -0.00004935434148
  C           2.27565052278303     -0.59989901899607      0.00003927156945
  C           1.80516733409062      0.71443524989499      0.00003837245984
  C           0.44091868530362      0.96078231151694     -0.00004838715086
  O          -0.00667968167768      2.26201023183141     -0.00003507496318
  H          -3.73950212403276     -0.28091603507068     -0.00015366704043
  H          -2.67918084850521     -1.40590577667470      0.89783351007206
  H          -2.67911072254120     -1.40604834695318     -0.89788439280008
  H          -0.69271976958704     -2.25386594765757     -0.00016624387810
  H           1.73658544641032     -2.68489272764933     -0.00005579671441
  H           3.34546619975564     -0.78550098705721      0.00010662772729
  H           2.49047392408868      1.55754612583832      0.00010594097190
  H          -0.97614272449863      2.25247634301095     -0.00012124776808
