34
Coordinates from ORCA-job geoopt E -2488.418269143742
  C           0.55587118727843     -3.26894223306819     -0.00065535473044
  C           1.56705514096583     -2.18116796020514      0.24211651604983
  O           1.13760620938996     -1.44224253520757      1.44597498103517
  P           1.68601095139323      0.00897860246607      1.76258182099658
  O           1.09974536027145      0.55398688707613      3.01303752409473
  O           3.25977803317111     -0.14604044399383      1.66575943592813
  C           4.13042184903404      1.01862382856143      1.92780960677319
  C           5.55398949371043      0.54391785541604      1.82059936758253
  O           1.39289209277834      0.94499986408557      0.45668553219784
  C           0.09280226448854      1.43765797364785      0.25874775270322
  C          -0.12902800800030      2.70275780828559      0.60197635388846
  Cl         -1.65317415859189      3.48722606484435      0.30629895848100
  C          -0.87262559028232      0.48454910876651     -0.31774601339708
  C          -1.92910930323627      0.00507206847677      0.46145139282141
  C          -2.82484648752363     -0.93233196171803     -0.03310482626884
  C          -2.65014350986837     -1.39442082305796     -1.33152999557691
  C          -1.61844010817121     -0.94368065186556     -2.14550165851631
  C          -0.74109624531067     -0.00477223196888     -1.62043504897302
  Cl          0.54143163023303      0.60044826590311     -2.65013076964469
  Cl         -3.75686012949725     -2.59425371990292     -1.97160811549666
  H           0.51854385272987     -3.96556497226383      0.84231940307949
  H          -0.44139722104717     -2.84782001686528     -0.16191996905214
  H           0.84490693143322     -3.82668196316928     -0.89746209911690
  H           1.62063441317356     -1.48318387814526     -0.59983261885116
  H           2.56476438935951     -2.58278139793997      0.44316254160461
  H           3.89990613031523      1.78775564851935      1.18355181491039
  H           3.89916131001250      1.39555374810268      2.92928347148554
  H           5.76345767020269      0.15583123523297      0.81931554789717
  H           6.22273942761984      1.38970656814641      2.00985758398897
  H           5.76461148270174     -0.23476743030872      2.55965398397315
  H           0.63040214416079      3.32816530256388      1.06011493909469
  H          -2.03492968247015      0.36816326504139      1.47952723244334
  H          -3.63549645314096     -1.30098393482853      0.58553842610101
  H          -1.50218425218319     -1.30884518832711     -3.15958619310634
