34
Coordinates from ORCA-job geoopt E -619.604675042829
  C           4.89297585932056      1.69940910723169     -0.47707423007832
  C           3.46571692986079      1.49647605779952     -0.90454520341617
  C           2.45992693052312      1.58993820646444     -0.02338728775445
  C           0.99460338291837      1.40194985978349     -0.29361099460253
  C           0.52786264494530      0.01692888420352      0.17374583813424
  C          -0.99710903237143     -0.20220827162217      0.12111241725758
  C          -1.54627773557707     -0.03333566354162     -1.28433402495109
  C          -1.65907381242995      0.63271654983271      1.18215885222533
  C          -2.33790123063608      1.75678369573833      0.97657264702808
  O          -1.09534516287728     -1.63842251496351      0.51040729683607
  C          -2.29000712647717     -2.20552331481818      0.74569807354010
  O          -3.35988608860997     -1.62222119935467      0.67110540478708
  C          -2.15877255863572     -3.65062646723608      1.11908362721662
  C           3.29548554587894      1.18104517323375     -2.36329363936033
  H           5.49090104655474      0.80102871981740     -0.68001681606348
  H           4.97118307772194      1.93434073283504      0.58855211651587
  H           5.35681123000411      2.51511677192122     -1.04753257844679
  H           2.71810149934042      1.79829814596942      1.01677783724617
  H           0.42841495586797      2.17243633003979      0.24656565124890
  H           0.77223335128472      1.53013050990890     -1.35680736033291
  H           0.86113914302594     -0.15400747427731      1.20569715927378
  H           0.99886392815161     -0.75130920020505     -0.45287815601645
  H          -2.61300059194245     -0.26199596528550     -1.32771190094575
  H          -1.40402370200228      0.99548690764777     -1.62421292829200
  H          -1.00655739563495     -0.69343796072054     -1.97056927484549
  H          -1.47501816131710      0.28642299300791      2.20040141871236
  H          -2.71940800566975      2.33084259498866      1.81651905023136
  H          -2.53538925134200      2.14449280460676     -0.01942916892645
  H          -1.12433919022841     -3.99429275598041      1.10360185597009
  H          -2.76005069592973     -4.24578058654439      0.42514952676690
  H          -2.57935764018998     -3.78846948186542      2.12030725154035
  H           3.67386113005199      2.00619953761330     -2.98122052227770
  H           3.89381618443416      0.29940630349513     -2.62769268092303
  H           2.25978493428662      0.98537619727611     -2.64887952329791
