13
Coordinates from ORCA-job geoopt E -269.509103076547
  C           2.25637062486503      0.22210118846593     -0.12090794884282
  O           0.91222359902180      0.28405948814081      0.35530653594447
  C           0.09574755616227     -0.72727808707635     -0.24182472826730
  C          -1.32088735296843     -0.54267922757511      0.24144940164329
  O          -1.90916469645483      0.68226971031345     -0.22545774430095
  H           2.71454909515208     -0.74961314104913      0.11523644026978
  H           2.81725753698292      1.01509034815617      0.38024541299945
  H           2.29849797826851      0.38023555977279     -1.20840166288707
  H           0.14069395043623     -0.64670415591589     -1.34021821100040
  H           0.45466612269232     -1.72904943007082      0.04759237604782
  H          -1.35095681787277     -0.58724597412275      1.34022054425230
  H          -1.93833737479692     -1.35662460973664     -0.15164476399219
  H          -1.38035053458821      1.40624926059752      0.13452822663362
