15
Coordinates from ORCA-job geoopt E -196.461421178193
  C           2.42830337278201     -0.40929648012016      0.07674781521277
  C           1.11337010915178      0.15627014593358     -0.45063533112809
  C          -0.04823475795440     -0.06704237579246      0.52827091043473
  C          -1.33002205812601      0.53007706228713      0.03868406145569
  C          -2.45022196010103     -0.15007865545610     -0.20109704038936
  H           2.70577169280846      0.06352284976193      1.02610481710819
  H           3.24636957679609     -0.24369998644865     -0.63242516647717
  H           2.34990267341018     -1.48863693184082      0.25194563090582
  H           1.22086955794479      1.23234222459572     -0.64185140635336
  H           0.86474266278075     -0.30988662653933     -1.41307129382454
  H           0.22031080884535      0.39357804998888      1.49101704152419
  H          -0.18134723700810     -1.14170148857769      0.70941722526215
  H          -1.31449304515327      1.60743573313951     -0.14092368390544
  H          -3.34725583999247      0.34452521203259     -0.56554104053825
  H          -2.50507382748414     -1.22547115346414     -0.03829629298732
