22
Coordinates from ORCA-job geoopt E -2301.514013600608
  C          -3.54683516687859     -0.00002797196786     -0.00007246021450
  C          -2.86115061288206      0.85532059704117     -0.85491097873184
  C          -1.47340224517747      0.84154044294573     -0.84114386485880
  C          -0.74036686360782      0.00000939754855     -0.00001661074671
  C          -1.47341326285149     -0.84154114229578      0.84108165810456
  C          -2.86116179596068     -0.85535810493196      0.85479352350800
  Cl         -0.60428305258616     -1.91945035641730      1.91873724811198
  C           0.74036902448312      0.00002734471589      0.00001149723434
  C           1.47338452151211      0.84157134023444      0.84114313968283
  C           2.86113258942376      0.85538614048849      0.85490822904961
  C           3.54683730526002      0.00006026943533      0.00006318951177
  C           2.86118410256915     -0.85528162387814     -0.85480716716371
  C           1.47343530216458     -0.84149954798617     -0.84109306131724
  Cl          0.60433081194087     -1.91942358119962     -1.91875449689809
  Cl          0.60421428787245      1.91947446479729      1.91877259786892
  Cl         -0.60425750799518      1.91947201489031     -1.91876541706888
  H          -4.63222568490549     -0.00004260222380     -0.00009417263051
  H          -3.39646340868694      1.52237370638603     -1.52158257995257
  H          -3.39648330288186     -1.52242570642502      1.52144357380828
  H           3.39642983341249      1.52244855293658      1.52158302668959
  H           4.63222780494885      0.00007300089261      0.00008313817804
  H           3.39652118552635     -1.52233158008676     -1.52146237076507
