16
Coordinates from ORCA-job geoopt E -492.054257881005
  C          -1.42333281753456     -1.22084687437606     -0.00001765941933
  C          -0.05039685096923     -1.21956753343125     -0.00001783059222
  C           0.64403905907381     -0.00000347549035     -0.00001056163352
  C          -0.05039581935617      1.21956073408289     -0.00002165143057
  C          -1.42333067404599      1.22084323209469     -0.00002152896056
  C          -2.14373736839535     -0.00000060481766     -0.00001928025133
  N          -3.48961848146743      0.00000242363199     -0.00001061952416
  N           2.06652280158302      0.00000429245023      0.00002032125361
  O           2.67274737858272     -1.08728741717990      0.00003229497527
  O           2.67273740971031      1.08729798932429      0.00002934118392
  H          -1.97004040995150     -2.15949950585392     -0.00000795859189
  H           0.49634495822491     -2.15528533119691     -0.00000527265629
  H           0.49634736206453      2.15527718085500     -0.00001208595620
  H          -1.97003559059836      2.15949711280232     -0.00001487435621
  H          -4.00289169360746     -0.86755722436560     -0.00001387576665
  H          -4.00288701661325      0.86756500547025     -0.00001647477386
