17
Coordinates from ORCA-job geoopt E -326.830486971299
  C          -2.85018720191872     -0.40558569039180     -0.11380723683656
  N          -1.83242844225083      0.58892368911296      0.20568537867528
  C          -0.48949731418056      0.26720720353911      0.08537850840926
  C          -0.03718542948442     -1.06423394381985      0.07583569075301
  C           1.32699131946294     -1.34043187683169      0.01288197750716
  C           2.26807276545672     -0.31649662843108     -0.05236893802606
  C           1.82039295647983      1.00737445279068     -0.05476711263960
  C           0.46658492462408      1.29993837091829      0.01183726959897
  H          -2.86763199683346     -1.20541523560961      0.63398566111359
  H          -2.70456470635415     -0.86421233619605     -1.10400460817472
  H          -3.82763066378458      0.08173207335101     -0.09875357319894
  H          -2.04861547494266      1.51336802135558     -0.14161382335889
  H          -0.74566682951161     -1.88484624894389      0.12166774648371
  H           1.65282179640840     -2.37765664483642      0.00931095291911
  H           3.32889487474906     -0.54153625870597     -0.10535621546704
  H           2.53646144287571      1.82330402349102     -0.11290175444766
  H           0.12875197040425      2.33429337150772      0.00927590638937
