17
Coordinates from ORCA-job geoopt E -384.012638040472
  C           1.87944483723374     -0.07353759595522     -0.29905606472693
  O           0.88817660904087     -0.08479066040700      0.74824750304749
  C          -0.44210919377135      0.00471316343758      0.29470378972881
  O          -0.79792448730357     -1.02924952268591     -0.58317777774171
  C          -0.72253915337695     -2.32558164635090      0.03315136007129
  O          -0.69307105627157      1.16122070636951     -0.45757965642840
  C          -0.49782900403588      2.36637716350019      0.30091747727934
  H           1.75541344395853     -0.92766098587621     -0.97399761027558
  H           2.84557624928489     -0.14722068210676      0.20358301450552
  H           1.84020362035713      0.85772962032765     -0.87494982916429
  H          -1.04981422430662     -0.01939107304800      1.21619138788644
  H           0.31422641917012     -2.60194539684361      0.25743506237791
  H          -1.13873546114971     -3.03238372298759     -0.68689963285510
  H          -1.31587076071489     -2.35201173524654      0.95645146699830
  H          -0.83569191410285      3.18681839103383     -0.33473761616538
  H           0.55867174725677      2.51277824975615      0.55376734575888
  H          -1.09520030996865      2.34740409258283      1.22181014220343
