16
Coordinates from ORCA-job geoopt E -234.547088060324
  C          -1.72302688672387     -0.95102154311016     -0.00054664402551
  C          -0.71907501268129      0.17101364842025     -0.00016323200878
  C          -1.13463267465066      1.44904502929365      0.00025152967796
  C           0.71907700181867     -0.17099915326750     -0.00015065959939
  C           1.13463379776102     -1.44903086211848      0.00027010971676
  C           1.72302955664348      0.95103512152337     -0.00055445938412
  H          -2.74120825034365     -0.55453428380553     -0.00105911751056
  H          -1.60409320180798     -1.59249941092490      0.88041485215091
  H          -1.60321221722449     -1.59268236903703     -0.88124737581514
  H          -0.44591314011889      2.28780010122587      0.00059404153148
  H          -2.19560131700672      1.68471516451172      0.00027532947659
  H           2.19560229072449     -1.68470174579367      0.00030276656305
  H           0.44591358195506     -2.28778537214018      0.00062025323862
  H           1.60319749277787      1.59269776994166     -0.88125074712058
  H           1.60410108455493      1.59251776003077      0.88040566040957
  H           2.74121179042203      0.55455127495016     -0.00106237000088
