21
Coordinates from ORCA-job geoopt E -312.216391834044
  C          -2.76875781920278      0.00153640644489      0.16012254506323
  C          -1.34153894224337      0.01863480583861      0.70247173540936
  C          -0.29618475954241     -0.33088661603853     -0.34668217618952
  H          -0.61693608142851     -1.25009206606552     -0.86659823288510
  C           1.10202541554450     -0.59584211672499      0.23737694844249
  C           2.08533696948989     -1.00265529871955     -0.86277015759263
  C           1.65323543930062      0.58115882482005      1.04356223566949
  O          -0.28264277563136      0.75442389531006     -1.30533303354003
  H          -2.90560314982192      0.74250006214367     -0.63410735210867
  H          -3.49075858991758      0.22736292333143      0.95199281083196
  H          -3.01951535535269     -0.98328112199971     -0.25122409386291
  H          -1.11295993083914      1.00777885920714      1.11983244380954
  H          -1.24867561114265     -0.70165396634737      1.52507011443951
  H           0.97845051477412     -1.45428574373752      0.91449050181308
  H           1.68824322529075     -1.82269678006554     -1.47303187389952
  H           2.31091767325725     -0.15939519942661     -1.52788067564876
  H           3.03468648371397     -1.33455905547909     -0.42888832683546
  H           2.66077025499106      0.35148743344163      1.40780874126028
  H           1.03160592641946      0.81296644986248      1.91408386776153
  H           1.72298072508128      1.48307424611102      0.42429583297016
  H           0.24153877375953      0.47184526759344     -2.06533945530803
