35
Coordinates from ORCA-job geoopt E -1064.337076747506
  C          -1.91137193402970     -3.40866902104910     -0.99671453309672
  C          -1.49297166966759     -3.23502408792377      0.45829384087133
  N          -0.10290739084041     -2.80537183445705      0.60781477287948
  C           0.30572828889705     -1.53908373046164      0.36318719126750
  N          -0.62818181685835     -0.57795624437551      0.28084709850747
  C          -0.15266057269162      0.65809864982742      0.07655882290936
  N           1.17180073852866      0.97827800796929     -0.03579087886829
  C           1.98053509100326     -0.06677650754389      0.06653356229245
  N           1.64414910130511     -1.34624905167614      0.25837038648824
  S           3.73498681333236      0.17275338354149     -0.06150221977126
  C           3.88530304188593      1.97011067568129     -0.32990853558519
  N          -1.00254665011582      1.69613327388940     -0.03188447692773
  C          -2.48354428471613      1.68701297853320     -0.00479340604161
  C          -3.00866279286209      1.19209441868390      1.34698315116354
  C          -2.90395182465198      3.14473863777226     -0.20643053081045
  C          -3.05104385088564      0.83505401197442     -1.14577969752220
  H          -2.95878798760740     -3.72479030890945     -1.05094428443560
  H          -1.80758253235674     -2.46932322505717     -1.54958559767588
  H          -1.29775198006714     -4.17021156619234     -1.48991530585464
  H          -1.59402743153975     -4.18372847973500      0.99491902324624
  H          -2.13809690141500     -2.50778968939525      0.95890532456592
  H           0.60820117887760     -3.51419147491508      0.49112442182203
  H           3.38158761075099      2.27294428414253     -1.24967056865237
  H           4.95768698650618      2.16355368031192     -0.42527088509182
  H           3.49289107049954      2.52908493581274      0.52157564912520
  H          -0.56053275896452      2.58926055498292     -0.19673629583955
  H          -4.10004596148762      1.28169889258921      1.36412242041853
  H          -2.74746996046027      0.14512021373340      1.51730816440175
  H          -2.60259385339729      1.79557491831772      2.16582323518011
  H          -3.99509861278238      3.21529374650595     -0.19662923127846
  H          -2.54479140418585      3.52864964188623     -1.16818610587558
  H          -2.51208781694210      3.78188016290179      0.59458981379608
  H          -2.79091887328639     -0.21942620456264     -1.02522893913079
  H          -4.14282001721796      0.92151621481721     -1.15193898717106
  H          -2.67456371725694      1.18249993137973     -2.11394318550603
