17
Coordinates from ORCA-job geoopt E -657.275923145416
  C           3.84665388062093     -0.28492676280144      0.29954033430517
  C           2.52904390081932     -0.23126971607633     -0.46833042233774
  C           1.32193156930634     -0.07343761491872      0.45573552784091
  C           0.00040235064233     -0.01935549219395     -0.31690325770463
  C          -1.15935668957052      0.13335963863046      0.64009079310511
  Cl         -2.76690854476402      0.20278451469227     -0.26423316398573
  H           4.00113754047490      0.63245855037957      0.87965625032457
  H           4.69989039428337     -0.39999804524036     -0.37765915992843
  H           3.85914293696740     -1.12819662883587      1.00005557227020
  H           2.54939529377956      0.60433250644975     -1.18099402566442
  H           2.40994802855960     -1.14657225356170     -1.06379629751693
  H           1.43661450930965      0.84345491434378      1.05083731974882
  H           1.29669545434032     -0.91062043931674      1.16740222137704
  H          -0.12262241164666     -0.93740159032856     -0.90462836179784
  H           0.01581657795118      0.82388140112065     -1.01835347359776
  H          -1.24445154384716     -0.71421083785973      1.32413797832295
  H          -1.10421082522655      1.06296076191692      1.21128432383870
