24
Coordinates from ORCA-job geoopt E -389.392502271511
  C           2.00852860806104      1.10519366531742     -1.07567378249745
  C           2.12019060643156     -0.20984246414473     -0.30644101134487
  C           3.55150900500000     -0.43367726581865      0.17917275437569
  C           1.14754094895766     -0.24949311372721      0.89082089632863
  C          -0.29922118619794     -0.14680950647890      0.48850687039906
  C          -1.01197923835353      1.04671593838035      0.63649945712505
  C          -2.33968160906472      1.14393431700022      0.22369506138307
  C          -2.97761594037377      0.04460148087250     -0.34594779114476
  C          -2.27817481478598     -1.15207880735813     -0.49774312204677
  C          -0.95239993274287     -1.24494206150336     -0.08344331112228
  H           2.71003669562397      1.12445472191702     -1.91729904460928
  H           2.24389085005887      1.95457081468872     -0.42112173075994
  H           1.00005582115326      1.25853988816466     -1.47500894561384
  H           1.84828083236648     -1.03356516139988     -0.98359066379873
  H           3.64854331769037     -1.38744514470359      0.71031092860292
  H           4.25591035802721     -0.43933571679849     -0.66020384196723
  H           3.85467801896414      0.36724337143598      0.86560250242538
  H           1.40059458439922      0.57249870471986      1.57375661942222
  H           1.30789397917287     -1.18901216577444      1.43565597627585
  H          -0.51864352674816      1.90937412946981      1.07924993818801
  H          -2.87682382089367      2.08048182607862      0.34866744761770
  H          -4.01322378255823      0.11767271942907     -0.66633812604949
  H          -2.76932616592008     -2.01710700651058     -0.93568945553449
  H          -0.41431194936771     -2.18352726745626     -0.20057106375447
