18
Coordinates from ORCA-job geoopt E -310.789399714456
  C          -2.77184858646152     -0.00289578269053      0.73559596114023
  C          -1.97757827652835      0.00467936929768     -0.57617707380229
  C          -0.49153003280939      0.00216444852193     -0.32783035046384
  C           0.21086188696190      1.20261683203196     -0.17992016608274
  C           1.57527112210227      1.20211387312796      0.10129742480565
  C           2.26105354195896     -0.00307445516609      0.24037344217521
  C           1.57188190338755     -1.20567945874245      0.09540611453365
  C           0.20752360554422     -1.20100218788904     -0.18579448127338
  H          -2.53407445707675     -0.89280708271822      1.32895842996726
  H          -3.84945969306309     -0.00114177331499      0.53970773902763
  H          -2.53312108000016      0.87948968945470      1.33972215953044
  H          -2.24985348214226      0.89189547688884     -1.15995653733799
  H          -2.25107417784865     -0.87494390422916     -1.17080955606625
  H          -0.31852868135811      2.14697831393376     -0.28958764300628
  H           2.10516832307411      2.14503444353746      0.20789581072333
  H           3.32582933620231     -0.00510457069327      0.45639397141194
  H           2.09917522092006     -2.15057271334469      0.19735004768219
  H          -0.32448163316309     -2.14334328110585     -0.30013290136476
