28
Coordinates from ORCA-job geoopt E -428.903932877670
  C          -5.59781351034281     -0.08571024958357      0.06810075963291
  C          -4.28690384330064     -0.85810412593313     -0.05413959068440
  C          -3.05839712987329      0.04443113477778      0.04979709954164
  C          -1.73900901843804     -0.71592538140497     -0.07059076015204
  C          -0.51266359389248      0.18929525585853      0.03156583085893
  C           0.80643384434785     -0.57151541813792     -0.08691891541267
  C           2.02730240707362      0.34071492656704      0.01438885066548
  C           3.33421691841961     -0.42934080531973     -0.10119424882124
  C           4.57424275253300      0.38854982334726     -0.01200953085031
  O           4.60205208888131      1.60009244487868      0.14668516399324
  H          -5.65990578929333      0.43241879318596      1.03246930880709
  H          -5.68282363075062      0.67055973315768     -0.72129192566647
  H          -6.46562001219253     -0.74969745484635     -0.01066250577400
  H          -4.26200960934371     -1.39236779004232     -1.01410144974820
  H          -4.23760309270100     -1.62684288943626      0.72958206053488
  H          -3.08341713558051      0.57998531020956      1.01037676609656
  H          -3.10774547315595      0.81391098668672     -0.73482973901322
  H          -1.71524568826286     -1.25224203947887     -1.03061893101559
  H          -1.68973601135234     -1.48414338370353      0.71508854971675
  H          -0.56062548508657      0.95648183028098     -0.75507805480206
  H          -0.53633447555187      0.72656618140628      0.99096068647771
  H           0.85794337831660     -1.33700078343483      0.70085325764220
  H           0.83262205358632     -1.10944369596798     -1.04563279153980
  H           1.98448626805697      1.10347082983685     -0.77423848884053
  H           2.00664065040694      0.87923192132691      0.97100578194832
  H           3.42264228505678     -1.20737641664540      0.67483051993274
  H           3.39962236089022     -0.98732806509044     -1.04965504724403
  H           5.52505095524933     -0.17752591969492     -0.09939428968390
