27
Coordinates from ORCA-job geoopt E -465.816001709152
  C           3.69850208967504      0.28184948349558     -0.11871266227662
  C           2.21583579509106      0.18414328606233     -0.01981678157138
  C           1.57620786256966     -1.00665312883451     -0.00095269288738
  C           0.13982943985320     -1.12925677200799      0.18859714169029
  O          -0.39214983377655     -2.24981399290992      0.22576794980253
  C          -0.65890081396826      0.14550748556492      0.41744482226924
  H          -0.53378126562831      0.34361234945173      1.49844385844361
  C          -0.00599692218488      1.31114923333441     -0.33366324242780
  C           1.45460918342379      1.47001347911656      0.07242541011850
  C          -2.16482103759859     -0.03460279628978      0.15285006690335
  C          -2.97762835578858      1.12260146984996      0.73570748151498
  C          -2.47813089191856     -0.21968803940172     -1.33393505636633
  H           4.18151424779840     -0.69802723635725     -0.09990847554088
  H           4.08926764452687      0.89314323656623      0.70514499741152
  H           3.97757676447373      0.80311673090807     -1.04363438831557
  H           2.13580065177841     -1.93731907092580     -0.07768994086938
  H          -0.05457198780673      1.12358864383858     -1.41399937978968
  H          -0.55078528807880      2.24020205129918     -0.13753352610994
  H           1.95554035257331      2.23000507263834     -0.54001981472569
  H           1.52591163977587      1.82729361954911      1.11291786074682
  H          -2.46623428279816     -0.94951309262830      0.67896054091966
  H          -4.05039654495946      0.92401569159619      0.63290951682966
  H          -2.76824036371718      2.06547616348888      0.21744658846682
  H          -2.76128005189536      1.26551662510560      1.80075146411726
  H          -3.53052887111540     -0.49284387683165     -1.46944301435443
  H          -1.86613323648178     -1.00859062459952     -1.78545887456905
  H          -2.30443946342272      0.70633528312078     -1.89391753683012
