8
Coordinates from ORCA-job geoopt E -837.123694264473
  C          -0.45283475095290      0.95010561861513      0.00142438181068
  C           0.75222371994262      0.03882770646950      0.00000499280257
  F           1.87612161830978      0.79385797316444      0.00142483328691
  F           0.80353015876018     -0.75851124967217     -1.08849364529158
  F           0.80328369518846     -0.76222497898756      1.08578782222239
  Cl         -1.97831794237297     -0.01225989266657     -0.00078822903116
  H          -0.43059153647410      1.57004186362707      0.89993823464291
  H          -0.43007638430106      1.57334390125017     -0.89479768014272
