15
Coordinates from ORCA-job geoopt E -233.595943331915
  C          -2.39050292419404      0.39621120694328     -0.00002476590418
  C          -1.18783990261173     -0.51912494532696     -0.00022825272376
  O           0.00000179968322      0.28332657569791     -0.00009213760403
  C           1.18784986524995     -0.51912039645705     -0.00030564001825
  C           2.39050811091967      0.39622164587202      0.00002336909575
  H          -2.39647166541109      1.03476020970802      0.88957995707809
  H          -2.39682196517775      1.03473064168943     -0.88964709309628
  H          -3.30912617665403     -0.19919611610503      0.00017106866208
  H          -1.19158268127339     -1.16943525372702     -0.89005597910800
  H          -1.19154469215393     -1.16979194470339      0.88933835683179
  H           1.19154559834388     -1.16988324053361      0.88919050374338
  H           1.19160420200003     -1.16932980307397     -0.89020607028477
  H           2.39656042842838      1.03453958204324      0.88979260560859
  H           3.30913485630659     -0.19918079860516     -0.00002971178409
  H           2.39673702154424      1.03497091867830     -0.88943492889633
