22
Coordinates from ORCA-job geoopt E -292.331086479348
  C           1.69115626561541     -0.51240922329455     -1.05998605832855
  C           1.16026464379515      0.49014635946586     -0.03143088015727
  C           2.24386307919660      0.81830247205878      0.99041078414259
  N          -0.04265011899848      0.03769851859692      0.70115276041555
  C          -1.16344761557727     -0.43840595288061     -0.13604973591202
  C          -1.69768058840936      0.67613136167207     -1.02716210534552
  C          -2.25835833049725     -0.96922255901180      0.78251967418755
  H           2.60893383375185     -0.13171225898179     -1.52247675756140
  H           1.92657657413283     -1.46925326564228     -0.57563001982855
  H           0.97265616462566     -0.70336117408935     -1.86349004583776
  H           0.89732837245605      1.41830208716720     -0.55740956975110
  H           1.90355792191150      1.57454206534232      1.70563397202902
  H           3.14180776830939      1.19799145241913      0.49214357239261
  H           2.52670775050090     -0.08158245076350      1.55237150520801
  H           0.25068328512926     -0.75563030376171      1.27048459325100
  H          -0.84988762404048     -1.27200443423549     -0.79034734112671
  H          -0.95474722741310      1.01517010918315     -1.75637447921324
  H          -2.56952646705996      0.31942670156987     -1.58602305931168
  H          -2.00781986719732      1.53959953997856     -0.42568427216757
  H          -3.07257404714851     -1.40632908028209      0.19474231514507
  H          -2.67487914485752     -0.16559985074388      1.40158509371658
  H          -1.86883608212533     -1.74794335666682      1.44930945025338
