17
Coordinates from ORCA-job geoopt E -346.938100022587
  C          -1.81741419147220     -1.35918393967266      0.22461380240226
  C          -1.45864671142473      0.01372227505970     -0.34202628029091
  C          -2.45663645282252      1.07699578067091      0.11998729375329
  C          -0.06865888611195      0.44876037372315      0.08053330835280
  O           0.89723243801526     -0.50814707879700     -0.46728791214891
  C           2.17795358475119     -0.29455557657520     -0.17605343267233
  O           2.60712058442554      0.61801975423907      0.50394160182225
  H          -2.82626550680806     -1.65052838042341     -0.08645146452959
  H          -1.79463454068758     -1.33789301527087      1.32139262444551
  H          -1.12436929949339     -2.13506121955315     -0.11558408586817
  H          -1.47807565592077     -0.03291921317274     -1.44015610239378
  H          -2.22310184489948      2.06012038830097     -0.30321045091307
  H          -2.45069030125564      1.16566931500464      1.21326684808979
  H          -3.47138825706889      0.80658663223282     -0.18881794910321
  H           0.18099535297189      1.44166088789034     -0.30904455800191
  H           0.03377979718742      0.45398390979210      1.17255746064752
  H           2.80541242541393     -1.06878867754867     -0.64166679009156
