15
Coordinates from ORCA-job geoopt E -420.739613294885
  C           2.07471881552134     -1.03440012473107     -0.00003207086358
  C           2.33113889048220      0.34352356536857     -0.00006403029266
  C           1.30085050354672      1.27219706717221     -0.00000260984564
  C          -0.02242412960076      0.83018249724832      0.00009390419213
  C          -0.30097026166269     -0.55934607089064      0.00014773164380
  C           0.76622722018703     -1.47623957909222      0.00006121566059
  C          -1.65828427150374     -1.04783213795455      0.00032692298997
  O          -2.65872825555230     -0.31241512851281     -0.00013150493606
  O          -1.01698778445494      1.74672885890523      0.00008501849072
  H           2.89668648252782     -1.74260430431462     -0.00007920137529
  H           3.35840819751835      0.69748107000426     -0.00014978444445
  H           1.50399880374887      2.33885086405234     -0.00004787715315
  H           0.53598202789661     -2.53912078191758      0.00010098760800
  H          -1.78288039831394     -2.14585513067458     -0.00024041435634
  H          -1.86848650484057      1.24228509673713      0.00007521028197
