17
Coordinates from ORCA-job geoopt E -438.067577007943
  C          -2.92462686199566      0.31658044028737     -0.95977504375510
  C          -1.85672144859467      0.13872975162073      0.12170840415634
  C          -2.06830548466741     -1.16091519759837      0.89683956487361
  C          -0.49794936643639      0.17661958275427     -0.55832484109143
  O           0.49636134084267      0.12536405724151      0.51625965681853
  N           1.82041447687173      0.11769114764313      0.07780918453349
  O           2.62012060462441      0.07394176107360      0.98596859497652
  O           2.03550036170477      0.15484665819083     -1.11223525703886
  H          -2.79594720966742      1.25862440116382     -1.50337315422715
  H          -3.92083089798968      0.31800775742043     -0.50652476397945
  H          -2.88452915740462     -0.50621436724715     -1.68359522227211
  H          -1.91276843045519      0.98946908910875      0.81472565866537
  H          -1.99667678556089     -2.02389497905080      0.22341638719104
  H          -3.06238274553189     -1.17140486267461      1.35580822061599
  H          -1.32913647516720     -1.28704142144770      1.69398008360515
  H          -0.35334366622859     -0.69062534434920     -1.21285094350518
  H          -0.35010507594397      1.10342882606341     -1.12207624676678
