22
Coordinates from ORCA-job geoopt E -350.303663036597
  C          -4.29079479210958      0.04353825436966     -0.04772745490987
  C          -2.99800682086358     -0.76214710773668      0.04919147611737
  C          -1.74974238495710      0.11537200630380     -0.02837377653494
  C          -0.44941449293432     -0.68016332105098      0.06427181145496
  C           0.79333669085132      0.20476535841839     -0.00942135553717
  C           2.08075239298739     -0.60103199278652      0.07887817660140
  C           3.34125077345204      0.18769281551696      0.01792949259198
  O           3.40016779855080      1.40310394596521     -0.09652243673673
  H          -5.17338139973172     -0.60259391366639      0.01279121092704
  H          -4.34194927174975      0.59135471475993     -0.99617560836026
  H          -4.35757983602147      0.77767751129242      0.76398024936132
  H          -2.96648835109188     -1.50715426357120     -0.75797173604832
  H          -2.98473054383495     -1.32612250405155      0.99219295784285
  H          -1.76313765469506      0.68193840027021     -0.97108654903569
  H          -1.77943058668067      0.85955495204411      0.78108319149328
  H          -0.43576101244655     -1.24858031957555      1.00549150476406
  H          -0.41680694320204     -1.42131447951510     -0.74740752624513
  H           0.77005415577669      0.94207910157300      0.80382600604160
  H           0.78535774026279      0.77464609401878     -0.94788483354036
  H           2.14995552621955     -1.35376475969187     -0.72363136434567
  H           2.13158079521808     -1.19320128819716      1.00731945291956
  H           4.27725919269999     -0.40535017908946      0.08377172507870
