20
Coordinates from ORCA-job geoopt E -534.136458303778
  C          -6.01510463315016     -1.15030688995496     -0.13152897970066
  C          -4.88083612158893     -0.42884229911030      0.59145864908174
  C          -3.52302933132616     -0.66092213781976     -0.06921334738113
  C          -2.38104708915915      0.05751393340925      0.64872950067382
  C          -1.02560567532189     -0.18929981034819     -0.02618493182088
  C           0.06601739251191      0.53984225965652      0.72126650374298
  I           2.04054354476293      0.22136379419551     -0.19860301825461
  H          -6.97943700486142     -0.97421406442996      0.35743786773821
  H          -5.84275356619105     -2.23293261153299     -0.15056106181326
  H          -6.09939500816630     -0.80873272633045     -1.16995405330892
  H          -5.08878359926065      0.64961635816471      0.62096649070817
  H          -4.83625719752923     -0.76522377286044      1.63647775581594
  H          -3.56494592262740     -0.32328170502923     -1.11479367493911
  H          -3.31266410079605     -1.73976949792233     -0.09799741961621
  H          -2.33532844760396     -0.28038053236715      1.69338205456769
  H          -2.58542865420389      1.13692704212196      0.67350447170732
  H          -1.06458538862369      0.15563483586407     -1.06640478203097
  H          -0.81491627006131     -1.26530499711434     -0.04465718884987
  H          -0.05653826554171      1.62319520384225      0.70807948636648
  H           0.19469109983813      0.18482619586584      1.74415872551326
