19
Coordinates from ORCA-job geoopt E -311.019170018549
  C           1.44409877329344      1.16637100113606     -0.85235962928453
  C           1.25405718790390      0.10623801163623      0.23395410984936
  C           2.48462168077260     -0.79629035626889      0.32671299036699
  C           0.00776026360382     -0.73513371427886     -0.03925903656602
  C          -1.31445541381614     -0.02726931970256      0.10722061300198
  O          -1.42897872455339      1.02332659900090      0.73279892043022
  C          -2.49681499756840     -0.68275754948481     -0.54202140103080
  H           0.57427086600833      1.82688890835238     -0.93424064322843
  H           2.32045307316446      1.78926535876269     -0.64143577412479
  H           1.59848390637999      0.68758552559102     -1.82763268525989
  H           1.12044540210498      0.61209875519272      1.19973434387596
  H           2.63927488362988     -1.33774046818877     -0.61514034544994
  H           2.37821786599139     -1.53662414399658      1.12763814856225
  H           3.38673697653492     -0.20722862179096      0.52623083276735
  H          -0.04798557601921     -1.58307691583395      0.66351155944695
  H           0.05364105072241     -1.19364889278884     -1.03748406219044
  H          -2.43915449579028     -0.49031153047607     -1.62165297397222
  H          -2.46262266530579     -1.76955259005904     -0.41362719819266
  H          -3.43429901895692     -0.27649784360267     -0.15687148220136
