17
Coordinates from ORCA-job geoopt E -346.967250296164
  C          -1.71609678924898     -0.67484132977470      0.79607626761320
  C          -1.20236546056629      0.47856513345103     -0.06633184164131
  C          -2.24443455809208      0.88521423616954     -1.10722232830089
  C           0.10387491650785      0.09373692048988     -0.76660238459673
  C           1.25553801980103     -0.12597715947017      0.16903322031917
  O           1.40576758469777      0.42254894396083      1.24798445573493
  O           2.16819006580224     -0.99211661272564     -0.32941435903623
  H          -0.98137072704050     -0.97721135084808      1.55084174084658
  H          -1.93945009977936     -1.54853178643825      0.17110984352707
  H          -2.63568594682778     -0.39042585878038      1.31888914160544
  H          -1.00025814078883      1.34199267009262      0.58143907844882
  H          -1.89783970691078      1.73167490225443     -1.71050513554696
  H          -2.45957542539555      0.05065169333503     -1.78613041558965
  H          -3.18346975531489      1.17437579043515     -0.62306066034588
  H           0.42524314115244      0.90068915305031     -1.44253694645942
  H          -0.03293076488116     -0.79796530988105     -1.38926690793056
  H           2.91186558388489     -1.04611768582056      0.29681541395244
