21
Coordinates from ORCA-job geoopt E -275.061673077954
  C          -3.72281469389198     -0.06152554558335     -0.17630703206022
  C          -2.39493006530684      0.21135074463601      0.52516232093074
  C          -1.18927549527092     -0.04632103100496     -0.37708319042054
  C           0.14477584734169      0.22559345431950      0.31426861720987
  C           1.34919705329648     -0.03266011556636     -0.60187609854458
  C           2.64995700174854      0.29132038038790      0.06321843774505
  C           3.64000039934302     -0.57454575886944      0.27549988370376
  H          -4.57442641855341      0.13052755157302      0.48546293219486
  H          -3.78523117097389     -1.10501183946397     -0.50708922602720
  H          -3.83742919748135      0.57517672170706     -1.06158190069822
  H          -2.31567310805741     -0.41757691000918      1.42264211834803
  H          -2.36893719005663      1.25323310244067      0.87321614309801
  H          -1.21329515111848     -1.08920705712799     -0.72563232506548
  H          -1.26711331273792      0.58328488029376     -1.27556935249459
  H           0.17189301054660      1.26829327710571      0.66128973687688
  H           0.23199772364238     -0.40550461083737      1.20968359381381
  H           1.23906979679805      0.59292202312213     -1.50051248466163
  H           1.34984358709578     -1.07919019574682     -0.93335513654540
  H           2.76545852214634      1.32296776195916      0.40317642293855
  H           4.55861330066606     -0.27474592781634      0.77381835649163
  H           3.56236453082389     -1.61256944641916     -0.04464234723333
