17
Coordinates from ORCA-job geoopt E -346.944720077269
  C          -3.27045402025680     -0.38252177439446     -0.13291052493581
  C          -1.93593501029596      0.03815059127039      0.47502965226908
  C          -0.76403129855531     -0.41514525555809     -0.38668697870417
  C           0.57749254542360     -0.03275177822322      0.16837036076219
  O           0.77013851308987      0.55745051576728      1.21858032570928
  O           1.57923213438837     -0.42685647960869     -0.64300615979926
  C           2.92207513564217     -0.11023634235731     -0.19550412293701
  H          -4.10751471361707     -0.05378647305394      0.49142956131859
  H          -3.40416993960934      0.05169867617683     -1.13035308405458
  H          -3.33242210319764     -1.47239345321740     -0.23136654038358
  H          -1.83333595960120     -0.38662135112949      1.48070009570194
  H          -1.90345668198364      1.12844629772050      0.58801594049091
  H          -0.83612536901812      0.00102487040014     -1.40038426611992
  H          -0.76863088653588     -1.50653389585033     -0.51230914227641
  H           3.04655886374953      0.97211267929320     -0.10611632243891
  H           3.58383373151949     -0.50527691517203     -0.96614727106103
  H           3.12585207355792     -0.59240778206336      0.76415512285869
