22
Coordinates from ORCA-job geoopt E -292.334860693746
  C          -3.83795609916125     -0.35219730376027     -0.00021217349768
  C          -2.56816906393344      0.49487920840486     -0.00016840574589
  C          -1.29522598386737     -0.35024322819957      0.00011149083185
  C          -0.01672724866979      0.48583750104269     -0.00002490442053
  C           1.25551628050124     -0.36074306030302      0.00027144330112
  C           2.52716177428995      0.48319241893676     -0.00017755563387
  N           3.78767939285855     -0.28283085363513      0.00008925958527
  H          -3.87889717995289     -0.99849912387173     -0.88504151930750
  H          -3.87922227200272     -0.99811900038047      0.88487946095645
  H          -4.73844340785819      0.27173872948953     -0.00050946591307
  H          -2.56430607024991      1.15357894664671      0.87942800592711
  H          -2.56407833584325      1.15334651369426     -0.87993774684471
  H          -1.29889979135019     -1.00947577202306      0.88066108603563
  H          -1.29879717674307     -1.00990938527507     -0.88011313915139
  H          -0.01441242146491      1.14520235256062      0.88035381594436
  H          -0.01430655974397      1.14474505822609     -0.88074682735657
  H           1.26161387697024     -1.01693207913722      0.88338360899553
  H           1.26150227568546     -1.01770671884301     -0.88226635841529
  H           2.52591906052521      1.14180727560024      0.87824391327289
  H           2.52581006407164      1.14102664918937     -0.87918330687412
  H           3.77203285810171     -0.90609990426697     -0.80400103832046
  H           3.77217708753695     -0.90530946479561      0.80479398383088
