18
Coordinates from ORCA-job geoopt E -272.921508378665
  C          -1.87389531001684     -1.07367713397206     -0.05064748947123
  C          -1.09928505614417      0.17224773065692     -0.46961679838969
  C           0.37189878155969      0.21341049696583     -0.02685063151606
  C           1.02610686979232      1.49659729106240     -0.53351940925371
  C           1.15108726818041     -1.00752233138382     -0.49425038672396
  O           0.44751670836915      0.18634265063874      1.42642013598688
  H          -1.49483668428159     -1.97395793993192     -0.54506549861874
  H          -2.93083257353590     -0.97233346393282     -0.31897418084204
  H          -1.82081364958813     -1.23364179533449      1.03158462154331
  H          -1.59128742255437      1.06666228904746     -0.06137140245816
  H          -1.12657314434507      0.27472368766752     -1.56231306056318
  H           0.48306350056208      2.37603083580334     -0.16686716465973
  H           2.06407428568574      1.55941784928150     -0.18974752436769
  H           1.02288935537291      1.52695649015436     -1.62848180468949
  H           2.20778472076896     -0.91144051387423     -0.22262902897851
  H           0.76226109159627     -1.92351191860653     -0.03916194943037
  H           1.08249147514300     -1.10677655130953     -1.58213876773125
  H          -0.01543454456447      0.97181653816734      1.74895718326362
