22
Coordinates from ORCA-job geoopt E -1382.351449816292
  C          -3.91602090475537     -1.55021543216962      0.08010899119680
  C          -3.54211027236483     -0.58521179791609      1.01372555811219
  C          -2.26306537555206     -0.04016799485631      0.98513874948391
  C          -1.33903643767011     -0.46041328931082      0.02175717950989
  C          -1.71560997590283     -1.43916316387792     -0.90411395969896
  C          -2.99930591280370     -1.97646068296632     -0.87748829355615
  C           0.04170776312834      0.07602819156185      0.00106520287853
  C           1.11277341544354     -0.82380201806052      0.07715177995497
  C           2.41876916696922     -0.36014178615498      0.06681156773473
  C           2.71361321332361      0.99385528470993     -0.01913175263305
  C           1.66184109125484      1.89676508659834     -0.10862927534482
  C           0.34961437807273      1.43848248741027     -0.10104358105332
  Cl         -0.92829490811464      2.63317066294475     -0.29483041972185
  Cl          3.73612456850823     -1.52058083881573      0.17330137805060
  H          -4.91721143716491     -1.97112801966543      0.10262861431031
  H          -4.24811390601116     -0.25806423988238      1.77179033473568
  H          -1.97326169188718      0.70067095853072      1.72462787056908
  H          -1.00205894326024     -1.76950756374660     -1.65442988601828
  H          -3.28254574151907     -2.72894064934187     -1.60796904125006
  H           0.90416161987160     -1.88556739351961      0.16064067415832
  H           3.73900466557027      1.34713930819995     -0.02368142404873
  H           1.86956008616371      2.95792827652837     -0.19593495946978
