22
Coordinates from ORCA-job geoopt E -1841.928820827343
  C          -4.41398654610650     -0.00015976333096      0.00037816102702
  C          -3.71630969578277      0.41206836672625     -1.13284920750466
  C          -2.32447879359624      0.41454870660768     -1.13447382884592
  C          -1.62450140488257     -0.00006680501088      0.00016210468642
  C          -2.32427666884807     -0.41472903060835      1.13490751705474
  C          -3.71610717665829     -0.41234160760839      1.13349866346011
  C          -0.13988609850485     -0.00001908253548      0.00005228215249
  C           0.60334383716159     -1.16787736452997     -0.20386668532934
  C           1.99206329745487     -1.19668049541509     -0.20827803030566
  C           2.66189434925628      0.00007105320120     -0.00015783840688
  C           1.99201744257809      1.19677884291271      0.20806440649193
  C           0.60329921344862      1.16788672829819      0.20386086617737
  Cl         -0.24072925218178      2.67765482453523      0.48860973351163
  Cl          4.41423907181610      0.00012901335071     -0.00029215515885
  Cl         -0.24062990406778     -2.67769976793052     -0.48849064042254
  H          -5.50029822060693     -0.00019578130577      0.00046151056091
  H          -4.25614080067417      0.73346941402724     -2.01905837755934
  H          -1.77683581140419      0.73739358509767     -2.01601330220743
  H          -1.77647296066845     -0.73753669016718      2.01636072228392
  H          -4.25578087676314     -0.73377794894994      2.01979087966779
  H           2.53031878831469     -2.12267896523610     -0.37324838466856
  H           2.53023755571550      2.12281232977173      0.37295332103487
