17
Coordinates from ORCA-job geoopt E -346.955902316466
  C           1.67207052087867      0.96482285404124      0.88911019947965
  C           1.18744795949895      0.10574894631440     -0.26149702304578
  C           2.15192625481173     -1.00036494498913     -0.62809444284744
  O          -0.06087080787706     -0.57139631555336      0.13881415954705
  C          -1.21001408186702      0.11759454540494      0.04013295260895
  O          -1.28333704663953      1.25477369266040     -0.40132529247562
  C          -2.37414086865666     -0.66505831070486      0.55951978072782
  H           1.88092923422960      0.34422799617482      1.76720084073468
  H           2.59706440136200      1.47306285039239      0.59819591475278
  H           0.93402617185750      1.72583501747178      1.15869944392664
  H           0.95797488789331      0.72228194037567     -1.13674484162224
  H           2.35189450773127     -1.64435587026955      0.23494729318844
  H           3.09863690962550     -0.55966378816882     -0.95535821839889
  H           1.75717454190686     -1.61245435328396     -1.44458940325767
  H          -3.29673419835910     -0.30332585657080      0.10340665928109
  H          -2.43521508870614     -0.50383137371281      1.64253238751017
  H          -2.24925776448989     -1.73547260858235      0.38428663449037
