20
Coordinates from ORCA-job geoopt E -696.576069090835
  C          -4.48267740376260     -0.36312521734131      0.27591645580961
  C          -3.23661591734961     -0.07037645881631     -0.55549262189020
  C          -1.94772404259613     -0.19346620098195      0.25534302750990
  C          -0.69509085986983      0.10093805464422     -0.56846412542579
  C           0.58798199581840     -0.03092092768425      0.25803497287663
  C           1.79576214575174      0.27598375491107     -0.59722278856441
  Cl          3.35788241125180      0.11953864565386      0.37319432338158
  H          -4.56336491952189      0.33140280431234      1.12047624275653
  H          -4.45279399289143     -1.38042028781121      0.68381920231541
  H          -5.39582181912903     -0.26953497723379     -0.32192757535847
  H          -3.19293370344411     -0.75953169887166     -1.41012630443792
  H          -3.30335219443430      0.94236514044517     -0.97643229848019
  H          -1.87766950583376     -1.20768538181508      0.67434957160460
  H          -1.98996358164585      0.49526873358844      1.11144485641948
  H          -0.76094270869988      1.11682243051413     -0.98251671251300
  H          -0.65092784963893     -0.58686508121626     -1.42444670374605
  H           0.66696617940951     -1.04879749346712      0.65925334823902
  H           0.55240890691181      0.65914341846935      1.11002136865060
  H           1.89856576195542     -0.42097885774447     -1.43218401605993
  H           1.78586879881868      1.30174440104485     -0.97301662438741
