22
Coordinates from ORCA-job geoopt E -313.114986598109
  C           4.25865401411554     -0.18289412674766     -0.21383286140463
  C           2.99205123324913      0.50989091069541      0.28160946742718
  C           1.71719958931587     -0.20372475010494     -0.16601523314453
  C           0.44383002750247      0.47940366035662      0.32827396175144
  C          -0.82462364515497     -0.23228373101185     -0.13377683802492
  C          -2.09229918560042      0.47049902191408      0.38207162494081
  C          -3.31588503758146     -0.17635056297362     -0.06099551928468
  C          -4.31573729242071     -0.73076398215035     -0.45066909829786
  H           4.27871109517835     -0.22806356599489     -1.30917671677954
  H           4.31674682129491     -1.21112103071949      0.16236840336384
  H           5.16062806032750      0.34454834831153      0.11527635677698
  H           3.00768927922695      0.56682992698217      1.37882363346840
  H           2.97193315122953      1.54639614486027     -0.08249855185104
  H           1.73736576018242     -1.24224045404122      0.19534369460439
  H           1.69918333068499     -0.25726936110385     -1.26438290774156
  H           0.42575614733028      1.51970437451451     -0.02723759196521
  H           0.45608918508913      0.52441115881315      1.42680628417416
  H          -0.85499629114921     -0.26667884643834     -1.23019979164622
  H          -0.82151341088947     -1.27098368601532      0.22028533296002
  H          -2.09778345879919      1.51497088166018      0.04315695371899
  H          -2.07785332906647      0.49820215648108      1.47961034574200
  H          -5.20399410876515     -1.21792411828748     -0.78624053628803
