21
Coordinates from ORCA-job geoopt E -312.205540711709
  C          -2.05131963501257     -1.18830338735185      0.54282242804756
  C          -1.15633084657016     -0.27787584522681     -0.27709830470563
  C          -1.89177866427656      0.96500488113634     -0.75961766518977
  O          -0.04488283748852      0.09515981601919      0.56860399155074
  C           1.17021712304642      0.40998424070223     -0.14843907953012
  C           1.95623473769891      1.37905720138577      0.71513592514169
  C           1.95462901018332     -0.86190639240593     -0.43977919842938
  H          -2.40447380241010     -0.66773203354886      1.44063408179319
  H          -2.92555832998045     -1.48899223840937     -0.04357831008874
  H          -1.51374065586621     -2.09085066353896      0.85112459409517
  H          -0.77111222465715     -0.83554225123104     -1.14455941535079
  H          -2.32189938208007      1.50526674569897      0.09169843375365
  H          -2.70517783014311      0.68681241561083     -1.43879612856681
  H          -1.22046221260559      1.64168908670402     -1.29863804156318
  H           0.90570327642402      0.90331136821711     -1.09638525488684
  H           2.18353288011344      0.92525560634289      1.68684144352075
  H           2.90253382330619      1.63827360182601      0.22955266731170
  H           1.38970956728454      2.30057400730270      0.88407244945352
  H           2.26581053904111     -1.33793080989196      0.49739043412681
  H           2.85201720706783     -0.63069535177058     -1.02418541523740
  H           1.35622211252471     -1.57828721267071     -1.01230731234611
