20
Coordinates from ORCA-job geoopt E -572.606229796503
  C           0.62753623667357      1.71643997247947     -0.04509700060501
  C           1.39953390522947      0.42359498654151     -0.27312568036435
  H           1.62973676092576      0.31061600173764     -1.34030759275537
  C           0.56775333379395     -0.77182627095125      0.18401706912865
  H           0.43050647847902     -0.70743931444914      1.27804098726712
  C          -0.79490730557234     -0.74241339808410     -0.49958877521632
  H          -0.64908186474360     -0.87825425182063     -1.57826686321266
  C          -1.48181629036964      0.61252273686741     -0.29446809341004
  H          -2.37377398292798      0.68367414545456     -0.92889694109787
  O          -0.64325371736896      1.67822407958217     -0.72174183047567
  O          -1.83185588490744      0.71682972851150      1.07255386654565
  O          -1.63959417155728     -1.81225686641341     -0.07872476914300
  O           1.20021161403736     -2.00968129714284     -0.15528356324359
  O           2.66431680267214      0.46202067911996      0.39872993283325
  H           1.16954808914987      2.56689026136200     -0.46645743929762
  H           0.48709467021996      1.88563830389682      1.03289118085836
  H          -2.50227195492199      1.40821519892077      1.15854077303953
  H          -1.84316601355539     -1.66763443208569      0.85684272540257
  H           2.06536938137678     -2.01214735347079      0.27651906800018
  H           2.49120244586676      0.57070677504405      1.34591447424618
