44
Coordinates from ORCA-job geoopt E -830.503079845730
  C           4.29670611117099     -3.64190468366540     -0.41262797830531
  N           3.80406216317537     -2.54527577763218      0.43231878502941
  C           4.52104260010111     -1.31917323369897      0.05432949405139
  C           2.36321923148577     -2.38302345819864      0.17228340074707
  C           1.67485225854215     -1.36720043968549      1.09017419817730
  C           0.20739570474837     -1.31101524221336      0.80490484801263
  C          -0.46153943404176     -0.27588710191890      0.26711111860610
  C           0.22718498542308      0.98146612512413     -0.12822978258185
  C           1.19931452668359      0.98323918332157     -1.13243054132999
  C           1.85110585064362      2.16221947392689     -1.48476885311776
  C           1.53354156859852      3.35062229499506     -0.83179342154152
  C           0.56373498288498      3.35365543193782      0.16845148623135
  C          -0.09630252007425      2.17788013965750      0.52842030447276
  C          -1.16475187396311      2.15793012692185      1.58213311633800
  C          -2.55589566105585      1.96134354893572      0.97426303090897
  C          -2.86010094050055      0.63488398841292      0.30316150063058
  C          -1.92451480765300     -0.37767437002318      0.00249989012141
  C          -2.38370821478441     -1.55927918385074     -0.60983830783637
  C          -3.72221150693962     -1.75996117344440     -0.91132215502113
  C          -4.64648586271419     -0.76204559995322     -0.61028593022258
  C          -4.20769811020890      0.41099543903063     -0.01321961972467
  H           5.36913056642360     -3.78753506904259     -0.24699711802128
  H           4.14009276246850     -3.44660437451753     -1.49023126908074
  H           3.78164041387629     -4.57370295008529     -0.15681627663371
  H           4.24421835780374     -0.48587903981658      0.70597489094518
  H           4.31796519730067     -1.02286525926906     -0.99265161319939
  H           5.59884705444241     -1.47814532949885      0.16075014859212
  H           2.19012122801163     -2.08853874662869     -0.88253117080208
  H           1.88428908406955     -3.36074039845973      0.31100462960129
  H           1.82489440324259     -1.68078378136156      2.13271662816755
  H           2.12034712055232     -0.37547571769451      0.97174658826309
  H          -0.36252474709539     -2.20081089206485      1.07617424255460
  H           1.44306192210897      0.05266993765600     -1.63906553037183
  H           2.60515374018620      2.15076832450352     -2.26696800005448
  H           2.04003427252638      4.27390420853083     -1.09957691488065
  H           0.31732544798873      4.27937457584086      0.68382313549758
  H          -0.96337312638399      1.35762954703193      2.30665490867937
  H          -1.16010552177315      3.10517383649273      2.13128576265921
  H          -3.30436040213938      2.10899267690390      1.76296747873692
  H          -2.73201953345685      2.76388575546999      0.24341289099511
  H          -1.65623498943888     -2.32259008605037     -0.87155851397830
  H          -4.03893215993642     -2.68262180801445     -1.38958230309664
  H          -5.69984838605808     -0.89534573641696     -0.84065125887405
  H          -4.92991927244139      1.18770182381167      0.23101713215534
