17
Coordinates from ORCA-job geoopt E -197.691099441704
  C          -2.08100415586212      0.01576090047460     -0.09463632890543
  C          -0.76543184149476     -0.66257907667273      0.28096208659308
  C           0.48132271792079     -0.01913129038313     -0.34065168923417
  C           0.65084265778994      1.43805091006381      0.09218927074015
  C           1.72847481052464     -0.82829437026933      0.01791569606801
  H          -2.93720190745849     -0.55152481097411      0.28647513289661
  H          -2.18799373958319      0.08860465426695     -1.18386891006715
  H          -2.15027242827510      1.02828919632096      0.31649005855497
  H          -0.64999417323587     -0.66497626058238      1.37521620802569
  H          -0.80306892772214     -1.71610240834587     -0.02845798592846
  H           0.35914224303226     -0.04055223534370     -1.43496881114546
  H          -0.18082167444696      2.06675565067058     -0.24223770110772
  H           1.57321173915775      1.86314520680213     -0.32007499384265
  H           0.70855240786787      1.50884794925481      1.18647326780515
  H           1.89038324348438     -0.82409664397558      1.10369001900356
  H           2.62452432007644     -0.40992815629970     -0.45462774160014
  H           1.63308245922458     -1.87228591590732     -0.30259084135603
