33
Coordinates from ORCA-job geoopt E -656.570061806072
  C          -2.86374429977318      1.78857781639193     -1.09735553246538
  C          -2.61458270510328      0.30686984382023     -0.82511399428015
  H          -2.84513547096799     -0.28007859587493     -1.72253743874978
  C          -1.17094486153391      0.01793441901374     -0.44106204191865
  C          -0.61942573831754      0.57417757672881      0.71570506744934
  C           0.70197529329121      0.31320305013489      1.06498846054759
  C           1.50987116094709     -0.50777216689584      0.27240584244234
  C           0.94980154815657     -1.06382422044796     -0.88191121838490
  C          -0.37241794910761     -0.80841291103652     -1.23307668007208
  C           2.95272087557907     -0.75931290252758      0.61808806363137
  C           3.93997850751027      0.05243850439816     -0.24653468881332
  C           3.73924065297432      1.55573679489638     -0.06410767990603
  C           5.37564398810583     -0.34763704512514      0.09025348026162
  C          -3.51731716475304     -0.21421232702205      0.27350921362019
  O          -4.14961413612492      0.47164099393953      1.05656919281169
  O          -3.53449642361411     -1.56435637714931      0.31231087651046
  H          -2.63951470601696      2.39634484891916     -0.21607939165998
  H          -2.22179815640680      2.12117079035404     -1.91804293916156
  H          -3.90696103210512      1.96165233799049     -1.37938276247560
  H          -1.22693340024240      1.21343522066333      1.35296794176824
  H           1.11500019779961      0.75408328984445      1.96956852746349
  H           1.55606385021403     -1.71076837387224     -1.51265635856594
  H          -0.79071453542394     -1.25749143312678     -2.13083458504121
  H           3.12829151569102     -0.51226738491448      1.67372381159259
  H           3.17694260283112     -1.82628410920365      0.48961940803771
  H           3.74512635370276     -0.19982345936732     -1.29983958001391
  H           4.45179441537146      2.12057220850900     -0.67569085951853
  H           3.89576040183751      1.83965410857212      0.98475352530693
  H           2.72908732949200      1.86898156252097     -0.34958138974816
  H           5.60355623381083     -0.11673191400301      1.13872577672687
  H           5.53695835139413     -1.42104979204130     -0.06124598846049
  H           6.09293097740874      0.19522033368828     -0.53548886201944
  H          -4.09830396772679     -1.84510552667737      1.05430577248468
