23
Coordinates from ORCA-job geoopt E -703.174870980474
  C          -0.55614971518034     -1.75610175499394     -1.56947157035555
  N          -0.19875899102153     -0.39296993971415     -1.17142200555068
  C          -1.31151769445689      0.49641193044103     -0.91467896848914
  C          -2.01417803254546      0.26220792780509      0.41370484853461
  F          -1.18825362514397      0.38633703780002      1.48091250658416
  F          -3.02266841965134      1.15420008529711      0.58487795310277
  F          -2.56414540288974     -0.97566631513640      0.49886205697253
  C           1.03396359030046     -0.18578747143662     -0.54613314955082
  C           1.41222779933185      1.07361518284396     -0.03409568204927
  C           2.67246760397522      1.26759894822278      0.51480168314903
  C           3.60087576513610      0.22931859660761      0.58434856539159
  C           3.23281748389641     -1.01852008022108      0.09221898896727
  C           1.97370794642686     -1.23325094953318     -0.46072326992651
  H          -1.53607259143602     -1.73559296894232     -2.05015582157494
  H          -0.59958254054589     -2.45407231756885     -0.72092504001777
  H           0.16385719098039     -2.14247526931944     -2.29841133777410
  H          -1.01072165724214      1.54674519336975     -0.94233225240004
  H          -2.06929419956707      0.36488925163588     -1.69423293621582
  H           0.72877736058804      1.91447991594541     -0.05381303273906
  H           2.92794009095979      2.25239816887039      0.89752971628876
  H           4.58300983057442      0.38998074838978      1.01822388156126
  H           3.93007541067150     -1.85111273160466      0.13991153871672
  H           1.73063360233934     -2.22416748495816     -0.82423786112500
