40
Coordinates from ORCA-job geoopt E -790.216823770107
  C          -3.38216601592605     -2.85043760512368      1.08453516671709
  N          -2.93696281070733     -2.64837780725793     -0.29990685222624
  C          -3.83902081225187     -3.38749194622118     -1.19220179008463
  C          -3.01594285296489     -1.22256591741327     -0.65988864188238
  C          -2.10515381265433     -0.30326003367783      0.12105882552508
  O          -0.73874940383054     -0.65633660318729     -0.13025536751496
  C           0.18161312202809      0.14329441283189      0.61403343832279
  C           1.57031833785813     -0.43608008434638      0.44821167327188
  C           1.91881519680309     -1.21951706259820     -0.65292659309501
  C           3.22381899273329     -1.69026127480513     -0.79181861583033
  C           4.18982947940934     -1.38192891220163      0.16195712252784
  C           3.84430245873114     -0.59980589050552      1.26330567621322
  C           2.54241958030476     -0.13134199265112      1.40478148141465
  C           0.15238715278097      1.59710053905603      0.16778169257909
  C           0.30139572320789      1.91986869241671     -1.18375648725837
  C           0.27919062830941      3.24850979156496     -1.59299930545445
  C           0.11717487750666      4.26903897703585     -0.65484477392590
  C          -0.03028016329930      3.95184602161549      0.69221297551374
  C          -0.01830314950010      2.61849434720635      1.10055431053781
  H          -4.39089510680097     -2.43410483153280      1.26778436331815
  H          -2.68580261938121     -2.38900372316235      1.79084149537397
  H          -3.41065802872800     -3.92247100335047      1.30384274642189
  H          -3.53058260081005     -3.25142460456661     -2.23417825343966
  H          -4.89018388958582     -3.05473486822308     -1.09893604481467
  H          -3.79921821876089     -4.45685814768710     -0.96104362139928
  H          -4.04750959799403     -0.83767663746819     -0.52759108004316
  H          -2.77483175046730     -1.12753216461451     -1.72630211341761
  H          -2.30402136317429     -0.34302294735961      1.20279628834353
  H          -2.29874433142054      0.72792871058393     -0.21173751363196
  H          -0.08763461353967      0.10829400290834      1.68249618089080
  H           1.17461807919765     -1.46461733166434     -1.40358032522244
  H           3.48419698620653     -2.30207547974634     -1.65134487015064
  H           5.20549841668800     -1.75119875934131      0.05097233498597
  H           4.58936236901745     -0.35904197721047      2.01659349878827
  H           2.27418413644734      0.47795759605978      2.26538273367054
  H           0.43252814208765      1.12608834400648     -1.91550814992014
  H           0.39201097179763      3.49170271933172     -2.64602176704924
  H           0.10330599388254      5.30685414231648     -0.97590956907912
  H          -0.16308505545609      4.74118072020062      1.42703363834940
  H          -0.14464463314428      2.36838111268171      2.15151532447448
