29
Coordinates from ORCA-job geoopt E -467.027110824020
  C          -3.69721849403547     -0.27823117380756      0.11260871945431
  C          -2.21261785176590     -0.30092989800321     -0.23461265145477
  H          -2.10150931331008     -0.58419675127311     -1.29256167578406
  C          -1.43814049246423     -1.31359173424862      0.60788795976407
  C           0.04552728246509     -1.31502370887576      0.25036493797546
  C           0.68975515766702      0.07356798510362      0.46146626822860
  H           0.52267617564932      0.33344914662498      1.52194814831626
  C          -0.10886466736944      1.11515717882816     -0.29492354193100
  O           0.40943741452029      1.94493986028962     -1.03812008742927
  C          -1.59666694918040      1.10008414188012     -0.05729130694749
  C           2.20281556109409      0.13145575206667      0.19003756185605
  C           2.98823503767789     -0.56973855951995      1.30045849389135
  C           2.58886896077986     -0.43827066401077     -1.17772390196526
  H          -4.23941140836090      0.44796606457323     -0.50333224846380
  H          -4.15091959307637     -1.26292209711247     -0.04634122577413
  H          -3.84135851989288     -0.00342404643825      1.16489123987677
  H          -1.56547278722535     -1.06746612400982      1.67280355032455
  H          -1.85827127868402     -2.31576105060822      0.45500170865803
  H           0.58468218697886     -2.05242250670195      0.85520650445216
  H           0.16027409252085     -1.61255051157487     -0.79984727970688
  H          -1.75792902346316      1.41603999362376      0.98551503965108
  H          -2.07327823190612      1.83557404773970     -0.71375713239228
  H           2.48359358449359      1.19341727133639      0.20499933496750
  H           2.76907210897259     -1.64348224552554      1.33078262823548
  H           2.75241082311514     -0.14760710318918      2.28408361137972
  H           4.06600120617763     -0.45923569059638      1.13538133836295
  H           1.98725776813072     -0.01104271210684     -1.98664785590440
  H           2.46457631110048     -1.52699680582114     -1.20156357516731
  H           3.64182677959091     -0.22395858004262     -1.39239803107367
