15
Coordinates from ORCA-job geoopt E -420.728725954365
  C          -2.48756025853503     -0.48065238384538      0.20434424559470
  C          -1.61490010569358     -1.44263651941834     -0.30009955181119
  C          -0.30082231933680     -1.10348045743463     -0.61402628831569
  C           0.10716455559807      0.20512697047351     -0.41277900146488
  C          -0.73765982758451      1.18184244297140      0.08926585593468
  C          -2.04869567751101      0.82747496925897      0.39869708665434
  O           1.42129971300587      0.56936469121400     -0.78498225234742
  C           2.37266680352379      0.48468140747238      0.17286088674883
  O           2.18593418737727      0.12235872351701      1.31051688486384
  H          -3.51124158530864     -0.75064574508777      0.44577114666668
  H          -1.95484266881679     -2.46273506642230     -0.45246808712122
  H           0.39707000439308     -1.83568236285653     -1.00847025466463
  H          -0.37319588806621      2.19458275413508      0.23210121518140
  H          -2.72706473109595      1.57887859778591      0.79181909860798
  H           3.33850360315044      0.79548184603669     -0.24699613062740
